# CELL file written 12:24:59 (GMT+1.0) 21st August 2020 from run P21c

%BLOCK lattice_cart
   ANG
       8.96316060785025        0.00000000000000       0.280113039219351E-02
       0.00000000000000        1.89257768174032        0.00000000000000    
      -5.97629516593505        0.00000000000000        3.26510782202290    
%ENDBLOCK lattice_cart

%BLOCK cell_constraints
      1   2   3
      0   5   0
%ENDBLOCK cell_constraints

%BLOCK positions_frac
   H              0.828598076713405       0.680729599063769       0.093901208517247
   H              0.171401923286595       0.319270400936231       0.906098791482752
   H              0.828598076713405       0.819270400936231       0.593901208517247
   H              0.171401923286595       0.180729599063769       0.406098791482753
   H              0.887271733626046       0.406080245013731       0.227799022249047
   H              0.112728266373954       0.593919754986269       0.772200977750953
   H              0.887271733626046       0.093919754986269       0.727799022249047
   H              0.112728266373954       0.906080245013731       0.272200977750953
   H              0.864883477358273       0.136313354409092       0.422217354616781
   H              0.135116522641727       0.863686645590908       0.577782645383219
   H              0.864883477358273       0.363686645590908       0.922217354616781
   H              0.135116522641727       0.636313354409092       0.077782645383219
   H              0.744679787278248       0.904731109177467       0.241983448683925
   H              0.255320212721752       0.095268890822534       0.758016551316075
   H              0.744679787278248       0.595268890822533       0.741983448683925
   H              0.255320212721752       0.404731109177466       0.258016551316075
   H              0.576744095313163       0.377061651667136       0.196377698948501
   H              0.423255904686836       0.622938348332864       0.803622301051499
   H              0.576744095313163       0.122938348332864       0.696377698948501
   H              0.423255904686836       0.877061651667136       0.303622301051499
   H              0.472289421457545       0.612625941258865       0.129886649731062
   H              0.527710578542455       0.387374058741133       0.870113350268938
   H              0.472289421457545       0.887374058741134       0.629886649731062
   H              0.527710578542455       0.112625941258867       0.370113350268938
%ENDBLOCK positions_frac

FIX_COM : true

%BLOCK species_gamma
   radsectesla
   H          267522128.0    
%ENDBLOCK species_gamma

%BLOCK species_pot
   H       0|0.7|2|6|8|10L(qc=10)
%ENDBLOCK species_pot

SYMMETRY_TOL :     0.001000

%BLOCK symmetry_ops
# Symm. op. 1       E
          1.000000000000000       0.000000000000000       0.000000000000000
          0.000000000000000       1.000000000000000       0.000000000000000
          0.000000000000000       0.000000000000000       1.000000000000000
          0.000000000000000       0.000000000000000       0.000000000000000
# Symm. op. 2       I
         -1.000000000000000       0.000000000000000       0.000000000000000
          0.000000000000000      -1.000000000000000       0.000000000000000
         -0.000000000000000       0.000000000000000      -1.000000000000000
          0.000000000000000       0.000000000000000      -0.000000000000000
# Symm. op. 3     2_1
         -1.000000000000000       0.000000000000000       0.000000000000000
          0.000000000000000       1.000000000000000       0.000000000000000
         -0.000000000000000       0.000000000000000      -1.000000000000000
          0.000000000000000       0.500000000000000       0.500000000000000
# Symm. op. 4       c
          1.000000000000000       0.000000000000000       0.000000000000000
          0.000000000000000      -1.000000000000000       0.000000000000000
          0.000000000000000       0.000000000000000       1.000000000000000
          0.000000000000000       0.500000000000000       0.500000000000000
%ENDBLOCK symmetry_ops

kpoint_mp_grid :    8  13  11

%BLOCK external_pressure
   GPA
       100.00000000      0.00000000      0.00000000
       100.00000000      0.00000000
       100.00000000
%ENDBLOCK external_pressure

