# CELL file written 19:29:09 (GMT+1.0) 21st August 2020 from run P21c

%BLOCK lattice_cart
   ANG
       9.61772200900652        0.00000000000000       0.152684412802733E-02
       0.00000000000000        2.01494827080227        0.00000000000000    
      -6.41326207538097        0.00000000000000        3.47468465241794    
%ENDBLOCK lattice_cart

%BLOCK cell_constraints
      1   2   3
      0   5   0
%ENDBLOCK cell_constraints

%BLOCK positions_frac
   H              0.833948927598629       0.659164800229530       0.101315171581875
   H              0.166051072401372       0.340835199770469       0.898684828418124
   H              0.833948927598629       0.840835199770470       0.601315171581875
   H              0.166051072401372       0.159164800229530       0.398684828418126
   H              0.883669248850872       0.406013573164895       0.224479170276383
   H              0.116330751149127       0.593986426835105       0.775520829723617
   H              0.883669248850872       0.093986426835105       0.724479170276383
   H              0.116330751149127       0.906013573164895       0.275520829723617
   H              0.861064336987647       0.122742802797258       0.417781585163304
   H              0.138935663012351       0.877257197202742       0.582218414836696
   H              0.861064336987647       0.377257197202742       0.917781585163304
   H              0.138935663012351       0.622742802797258       0.082218414836696
   H              0.748113409022536       0.907922109880471       0.246271129480877
   H              0.251886590977464       0.092077890119530       0.753728870519124
   H              0.748113409022536       0.592077890119529       0.746271129480876
   H              0.251886590977464       0.407922109880470       0.253728870519124
   H              0.574603213900251       0.389159923313132       0.194070942714737
   H              0.425396786099748       0.610840076686868       0.805929057285263
   H              0.574603213900251       0.110840076686868       0.694070942714737
   H              0.425396786099748       0.889159923313132       0.305929057285263
   H              0.477389496318553       0.602141884131568       0.135901497408036
   H              0.522610503681447       0.397858115868431       0.864098502591965
   H              0.477389496318553       0.897858115868431       0.635901497408035
   H              0.522610503681447       0.102141884131569       0.364098502591964
%ENDBLOCK positions_frac

FIX_COM : true

%BLOCK species_gamma
   radsectesla
   H          267522128.0    
%ENDBLOCK species_gamma

%BLOCK species_pot
   H       0|0.7|2|6|8|10L(qc=10)
%ENDBLOCK species_pot

SYMMETRY_TOL :     0.001000

%BLOCK symmetry_ops
# Symm. op. 1       E
          1.000000000000000       0.000000000000000       0.000000000000000
          0.000000000000000       1.000000000000000       0.000000000000000
          0.000000000000000       0.000000000000000       1.000000000000000
          0.000000000000000       0.000000000000000       0.000000000000000
# Symm. op. 2       I
         -1.000000000000000       0.000000000000000       0.000000000000000
          0.000000000000000      -1.000000000000000       0.000000000000000
         -0.000000000000000       0.000000000000000      -1.000000000000000
          0.000000000000000       0.000000000000000      -0.000000000000000
# Symm. op. 3     2_1
         -1.000000000000000       0.000000000000000       0.000000000000000
          0.000000000000000       1.000000000000000       0.000000000000000
         -0.000000000000000       0.000000000000000      -1.000000000000000
          0.000000000000000       0.500000000000000       0.500000000000000
# Symm. op. 4       c
          1.000000000000000       0.000000000000000       0.000000000000000
          0.000000000000000      -1.000000000000000       0.000000000000000
          0.000000000000000       0.000000000000000       1.000000000000000
          0.000000000000000       0.500000000000000       0.500000000000000
%ENDBLOCK symmetry_ops

kpoint_mp_grid :    8  13  11

%BLOCK external_pressure
   GPA
        60.00000000      0.00000000      0.00000000
        60.00000000      0.00000000
        60.00000000
%ENDBLOCK external_pressure

