! Specify the lattice vectors.
%BLOCK LATTICE_CART
       2.130422493309720      -1.230000000000000       0.000000000000000
      -0.000000000000001       2.460000000000000       0.000000000000000
       0.000000000000000       0.000000000000000       6.800000000000000
%ENDBLOCK LATTICE_CART

! Specify the atomic positions
%BLOCK POSITIONS_FRAC
  C   0.0000000000000000  -0.0000000000000000   0.2500000000000000
  C   0.0000000000000000  -0.0000000000000000   0.7500000000000001
  C   0.3333333333333330   0.6666666666666670   0.2500000000000000
  C  -0.3333333333333330  -0.6666666666666671   0.7500000000000001
%ENDBLOCK POSITIONS_FRAC

! Specify the distance between kpoints. CASTEP will generate the most appropriate
! grid.
KPOINT_MP_SPACING : 0.05

! Generate the symmetry operations for the cell.
symmetry_generate