# CELL file written 17:51:29 (GMT+1.0) 27th July 2020 from run Pbcn

%BLOCK lattice_cart
   ANG
       3.11646777943841      -0.142983886467863E-33    0.00000000000000    
     -0.248754899180418E-33    5.41707370457467        0.00000000000000    
       0.00000000000000        0.00000000000000        5.51557495805782    
%ENDBLOCK lattice_cart

%BLOCK cell_constraints
      1   2   3
      0   0   0
%ENDBLOCK cell_constraints

%BLOCK positions_frac
   H              0.402884063347462       0.118569660917141       0.011429661318979
   H              0.573770766676302       0.206919025778172       0.037199613364720
   H              0.569221038768175       0.553517043490882       0.004095159845503
   H              0.124952395299355       0.170838767376987       0.247708015746865
   H              0.305845128819729       0.353663453966813       0.241527832524417
   H              0.181028828162649       0.477873438686581       0.250717593167707
   H              0.181028828162649       0.522126561313419       0.750717593167707
   H              0.305845128819729       0.646336546033187       0.741527832524416
   H              0.124952395299355       0.829161232623013       0.747708015746866
   H              0.569221038768175       0.446482956509118       0.504095159845504
   H              0.573770766676302       0.793080974221830       0.537199613364720
   H              0.402884063347462       0.881430339082859       0.511429661318980
   H              0.318971171837351       0.977873438686581       0.250717593167707
   H              0.194154871180272       0.853663453966812       0.241527832524417
   H              0.375047604700644       0.670838767376987       0.247708015746865
   H             -0.069221038768175       0.053517043490883       0.004095159845503
   H             -0.073770766676300       0.706919025778170       0.037199613364720
   H              0.097115936652538       0.618569660917141       0.011429661318979
   H              0.681028828162649       0.977873438686581       0.249282406832293
   H              0.805845128819730       0.853663453966812       0.258472167475583
   H              0.624952395299355       0.670838767376987       0.252291984253135
   H              1.069221038768176       0.053517043490883       0.495904840154497
   H              1.073770766676301       0.706919025778170       0.462800386635280
   H              0.902884063347464       0.618569660917141       0.488570338681021
   H              0.818971171837352       0.522126561313419       0.749282406832293
   H              0.694154871180270       0.646336546033187       0.758472167475584
   H              0.875047604700645       0.829161232623013       0.752291984253134
   H              0.430778961231825       0.446482956509118      -0.004095159845503
   H              0.426229233323698       0.793080974221830       0.962800386635280
   H              0.597115936652536       0.881430339082859       0.988570338681020
   H              0.818971171837352       0.477873438686581       0.249282406832293
   H              0.694154871180270       0.353663453966813       0.258472167475583
   H              0.875047604700645       0.170838767376987       0.252291984253135
   H              0.430778961231825       0.553517043490882       0.495904840154497
   H              0.426229233323698       0.206919025778172       0.462800386635280
   H              0.597115936652536       0.118569660917141       0.488570338681021
   H              0.681028828162649       0.022126561313419       0.749282406832293
   H              0.805845128819730       0.146336546033187       0.758472167475584
   H              0.624952395299355       0.329161232623013       0.752291984253134
   H              0.069221038768175      -0.053517043490883      -0.004095159845503
   H              1.073770766676301       0.293080974221828       0.962800386635280
   H              0.902884063347464       0.381430339082861       0.988570338681020
   H              0.318971171837351       0.022126561313419       0.750717593167707
   H              0.194154871180272       0.146336546033187       0.741527832524416
   H              0.375047604700644       0.329161232623013       0.747708015746866
   H              0.930778961231825      -0.053517043490883       0.504095159845504
   H             -0.073770766676300       0.293080974221828       0.537199613364720
   H              0.097115936652538       0.381430339082861       0.511429661318980
%ENDBLOCK positions_frac

FIX_COM : true

%BLOCK species_mass
   AMU
   H          1.007825032    
%ENDBLOCK species_mass

%BLOCK species_gamma
   radsectesla
   H          267522128.0    
%ENDBLOCK species_gamma

%BLOCK species_pot
   H       0|0.7|2|6|8|10L(qc=10)
%ENDBLOCK species_pot

SYMMETRY_TOL :     0.001000

%BLOCK symmetry_ops
# Symm. op. 1       E
          1.000000000000000       0.000000000000000       0.000000000000000
          0.000000000000000       1.000000000000000       0.000000000000000
          0.000000000000000       0.000000000000000       1.000000000000000
          0.000000000000000       0.000000000000000       0.000000000000000
# Symm. op. 2       I
         -1.000000000000000       0.000000000000000       0.000000000000000
          0.000000000000000      -1.000000000000000       0.000000000000000
          0.000000000000000       0.000000000000000      -1.000000000000000
         -0.000000000000000      -0.000000000000000       0.000000000000000
# Symm. op. 3     2_1
         -1.000000000000000       0.000000000000000       0.000000000000000
          0.000000000000000      -1.000000000000000       0.000000000000000
          0.000000000000000       0.000000000000000       1.000000000000000
          0.500000000000000       0.500000000000000       0.500000000000000
# Symm. op. 4       n
          1.000000000000000       0.000000000000000       0.000000000000000
          0.000000000000000       1.000000000000000       0.000000000000000
          0.000000000000000       0.000000000000000      -1.000000000000000
          0.500000000000000       0.500000000000000       0.500000000000000
# Symm. op. 5     2_1
          1.000000000000000       0.000000000000000       0.000000000000000
          0.000000000000000      -1.000000000000000       0.000000000000000
          0.000000000000000       0.000000000000000      -1.000000000000000
          0.500000000000000       0.500000000000000       0.000000000000000
# Symm. op. 6       b
         -1.000000000000000       0.000000000000000       0.000000000000000
          0.000000000000000       1.000000000000000       0.000000000000000
          0.000000000000000       0.000000000000000       1.000000000000000
          0.500000000000000       0.500000000000000       0.000000000000000
# Symm. op. 7       2
         -1.000000000000000       0.000000000000000       0.000000000000000
          0.000000000000000       1.000000000000000       0.000000000000000
          0.000000000000000       0.000000000000000      -1.000000000000000
          0.000000000000000       0.000000000000000       0.500000000000000
# Symm. op. 8       c
          1.000000000000000       0.000000000000000       0.000000000000000
          0.000000000000000      -1.000000000000000       0.000000000000000
          0.000000000000000       0.000000000000000       1.000000000000000
          0.000000000000000      -0.000000000000000       0.500000000000000
%ENDBLOCK symmetry_ops

kpoint_mp_grid :    5   5   5

phonon_kpoint_mp_grid :    8   6   4



%BLOCK EXTERNAL_PRESSURE
GPA
120  0   0
    120  0
        120
%ENDBLOCK EXTERNAL_PRESSURE
