# CELL file written 23:43:38 (GMT+1.0) 26th July 2020 from run Pbcn

%BLOCK lattice_cart
   ANG
       2.86940570300377       0.341154124261154E-34    0.00000000000000    
      0.593380770526906E-34    4.99141347385045        0.00000000000000    
       0.00000000000000        0.00000000000000        5.12363793579374    
%ENDBLOCK lattice_cart

%BLOCK cell_constraints
      1   2   3
      0   0   0
%ENDBLOCK cell_constraints

%BLOCK positions_frac
   H              0.404476956191675       0.113114378837130       0.010078081893104
   H              0.581094949608562       0.214949172865435       0.021396852705695
   H              0.578309657522865       0.555847619861559       0.004847551148541
   H              0.142035326601433       0.172073001905095       0.248834112181531
   H              0.313944713246549       0.344185073233918       0.244686366211819
   H              0.171291968823759       0.485493782658538       0.250308722889119
   H              0.171291968823759       0.514506217341462       0.750308722889119
   H              0.313944713246549       0.655814926766082       0.744686366211818
   H              0.142035326601433       0.827926998094905       0.748834112181531
   H              0.578309657522865       0.444152380138441       0.504847551148541
   H              0.581094949608562       0.785050827134565       0.521396852705695
   H              0.404476956191675       0.886885621162870       0.510078081893104
   H              0.328708031176242       0.985493782658538       0.250308722889119
   H              0.186055286753452       0.844185073233917       0.244686366211819
   H              0.357964673398567       0.672073001905095       0.248834112181531
   H             -0.078309657522866       0.055847619861560       0.004847551148541
   H             -0.081094949608561       0.714949172865435       0.021396852705695
   H              0.095523043808325       0.613114378837130       0.010078081893104
   H              0.671291968823759       0.985493782658538       0.249691277110881
   H              0.813944713246549       0.844185073233917       0.255313633788181
   H              0.642035326601433       0.672073001905095       0.251165887818469
   H              1.078309657522866       0.055847619861560       0.495152448851459
   H              1.081094949608562       0.714949172865435       0.478603147294305
   H              0.904476956191676       0.613114378837130       0.489921918106896
   H              0.828708031176242       0.514506217341462       0.749691277110881
   H              0.686055286753451       0.655814926766082       0.755313633788182
   H              0.857964673398567       0.827926998094905       0.751165887818469
   H              0.421690342477134       0.444152380138441      -0.004847551148541
   H              0.418905050391438       0.785050827134565       0.978603147294305
   H              0.595523043808324       0.886885621162870       0.989921918106896
   H              0.828708031176242       0.485493782658538       0.249691277110881
   H              0.686055286753451       0.344185073233918       0.255313633788181
   H              0.857964673398567       0.172073001905095       0.251165887818469
   H              0.421690342477134       0.555847619861559       0.495152448851459
   H              0.418905050391438       0.214949172865435       0.478603147294305
   H              0.595523043808324       0.113114378837130       0.489921918106896
   H              0.671291968823759       0.014506217341462       0.749691277110881
   H              0.813944713246549       0.155814926766082       0.755313633788182
   H              0.642035326601433       0.327926998094905       0.751165887818469
   H              0.078309657522866      -0.055847619861560      -0.004847551148541
   H              1.081094949608562       0.285050827134565       0.978603147294305
   H              0.904476956191676       0.386885621162872       0.989921918106896
   H              0.328708031176242       0.014506217341462       0.750308722889119
   H              0.186055286753452       0.155814926766082       0.744686366211818
   H              0.357964673398567       0.327926998094905       0.748834112181531
   H              0.921690342477135      -0.055847619861560       0.504847551148541
   H             -0.081094949608561       0.285050827134565       0.521396852705695
   H              0.095523043808325       0.386885621162872       0.510078081893104
%ENDBLOCK positions_frac

FIX_COM : true

%BLOCK species_mass
   AMU
   H          1.007825032    
%ENDBLOCK species_mass

%BLOCK species_gamma
   radsectesla
   H          267522128.0    
%ENDBLOCK species_gamma

%BLOCK species_pot
   H       0|0.7|2|6|8|10L(qc=10)
%ENDBLOCK species_pot

SYMMETRY_TOL :     0.001000

%BLOCK symmetry_ops
# Symm. op. 1       E
          1.000000000000000       0.000000000000000       0.000000000000000
          0.000000000000000       1.000000000000000       0.000000000000000
          0.000000000000000       0.000000000000000       1.000000000000000
          0.000000000000000       0.000000000000000       0.000000000000000
# Symm. op. 2       I
         -1.000000000000000       0.000000000000000       0.000000000000000
          0.000000000000000      -1.000000000000000       0.000000000000000
          0.000000000000000       0.000000000000000      -1.000000000000000
         -0.000000000000000      -0.000000000000000       0.000000000000000
# Symm. op. 3     2_1
         -1.000000000000000       0.000000000000000       0.000000000000000
          0.000000000000000      -1.000000000000000       0.000000000000000
          0.000000000000000       0.000000000000000       1.000000000000000
          0.500000000000000       0.500000000000000       0.500000000000000
# Symm. op. 4       n
          1.000000000000000       0.000000000000000       0.000000000000000
          0.000000000000000       1.000000000000000       0.000000000000000
          0.000000000000000       0.000000000000000      -1.000000000000000
          0.500000000000000       0.500000000000000       0.500000000000000
# Symm. op. 5     2_1
          1.000000000000000       0.000000000000000       0.000000000000000
          0.000000000000000      -1.000000000000000       0.000000000000000
          0.000000000000000       0.000000000000000      -1.000000000000000
          0.500000000000000       0.500000000000000       0.000000000000000
# Symm. op. 6       b
         -1.000000000000000       0.000000000000000       0.000000000000000
          0.000000000000000       1.000000000000000       0.000000000000000
          0.000000000000000       0.000000000000000       1.000000000000000
          0.500000000000000       0.500000000000000       0.000000000000000
# Symm. op. 7       2
         -1.000000000000000       0.000000000000000       0.000000000000000
          0.000000000000000       1.000000000000000       0.000000000000000
          0.000000000000000       0.000000000000000      -1.000000000000000
          0.000000000000000       0.000000000000000       0.500000000000000
# Symm. op. 8       c
          1.000000000000000       0.000000000000000       0.000000000000000
          0.000000000000000      -1.000000000000000       0.000000000000000
          0.000000000000000       0.000000000000000       1.000000000000000
          0.000000000000000      -0.000000000000000       0.500000000000000
%ENDBLOCK symmetry_ops

kpoint_mp_grid :    5   5   5

phonon_kpoint_mp_grid :    8   6   4



%BLOCK EXTERNAL_PRESSURE
GPA
240  0   0
    240  0
        240
%ENDBLOCK EXTERNAL_PRESSURE
