# CELL file written 18:54:02 (GMT+1.0) 27th July 2020 from run Pbcn

%BLOCK lattice_cart
   ANG
       3.21703746238821      -0.161314223189326E-33    0.00000000000000    
     -0.280665482427526E-33    5.59097918787201        0.00000000000000    
       0.00000000000000        0.00000000000000        5.66035219856566    
%ENDBLOCK lattice_cart

%BLOCK cell_constraints
      1   2   3
      0   0   0
%ENDBLOCK cell_constraints

%BLOCK positions_frac
   H              0.404796472419100       0.120523450599492       0.014109304099331
   H              0.571832420291640       0.205464453887216       0.040842960925503
   H              0.567630637161964       0.551834223651212       0.003542994981697
   H              0.119495307406650       0.170200878270708       0.247440065672646
   H              0.303621344561706       0.356535928486552       0.241028099123258
   H              0.184476671081112       0.475268167458825       0.251678434472289
   H              0.184476671081112       0.524731832541175       0.751678434472289
   H              0.303621344561706       0.643464071513448       0.741028099123257
   H              0.119495307406650       0.829799121729291       0.747440065672647
   H              0.567630637161964       0.448165776348789       0.503542994981697
   H              0.571832420291640       0.794535546112786       0.540842960925504
   H              0.404796472419100       0.879476549400508       0.514109304099332
   H              0.315523328918888       0.975268167458825       0.251678434472289
   H              0.196378655438295       0.856535928486551       0.241028099123258
   H              0.380504692593349       0.670200878270709       0.247440065672646
   H             -0.067630637161964       0.051834223651213       0.003542994981697
   H             -0.071832420291638       0.705464453887214       0.040842960925503
   H              0.095203527580899       0.620523450599492       0.014109304099331
   H              0.684476671081112       0.975268167458825       0.248321565527711
   H              0.803621344561707       0.856535928486551       0.258971900876742
   H              0.619495307406650       0.670200878270709       0.252559934327354
   H              1.067630637161965       0.051834223651213       0.496457005018303
   H              1.071832420291639       0.705464453887214       0.459157039074497
   H              0.904796472419102       0.620523450599492       0.485890695900669
   H              0.815523328918889       0.524731832541175       0.748321565527711
   H              0.696378655438293       0.643464071513448       0.758971900876743
   H              0.880504692593350       0.829799121729291       0.752559934327353
   H              0.432369362838036       0.448165776348789      -0.003542994981697
   H              0.428167579708360       0.794535546112786       0.959157039074496
   H              0.595203527580898       0.879476549400508       0.985890695900668
   H              0.815523328918889       0.475268167458825       0.248321565527711
   H              0.696378655438293       0.356535928486552       0.258971900876742
   H              0.880504692593350       0.170200878270708       0.252559934327354
   H              0.432369362838036       0.551834223651212       0.496457005018303
   H              0.428167579708360       0.205464453887216       0.459157039074497
   H              0.595203527580898       0.120523450599492       0.485890695900669
   H              0.684476671081112       0.024731832541175       0.748321565527711
   H              0.803621344561707       0.143464071513448       0.758971900876743
   H              0.619495307406650       0.329799121729291       0.752559934327353
   H              0.067630637161964      -0.051834223651213      -0.003542994981697
   H              1.071832420291639       0.294535546112784       0.959157039074496
   H              0.904796472419102       0.379476549400509       0.985890695900668
   H              0.315523328918888       0.024731832541175       0.751678434472289
   H              0.196378655438295       0.143464071513448       0.741028099123257
   H              0.380504692593349       0.329799121729291       0.747440065672647
   H              0.932369362838036      -0.051834223651213       0.503542994981697
   H             -0.071832420291638       0.294535546112784       0.540842960925504
   H              0.095203527580899       0.379476549400509       0.514109304099332
%ENDBLOCK positions_frac

FIX_COM : true

%BLOCK species_mass
   AMU
   H          1.007825032    
%ENDBLOCK species_mass

%BLOCK species_gamma
   radsectesla
   H          267522128.0    
%ENDBLOCK species_gamma

%BLOCK species_pot
   H       0|0.7|2|6|8|10L(qc=10)
%ENDBLOCK species_pot

SYMMETRY_TOL :     0.001000

%BLOCK symmetry_ops
# Symm. op. 1       E
          1.000000000000000       0.000000000000000       0.000000000000000
          0.000000000000000       1.000000000000000       0.000000000000000
          0.000000000000000       0.000000000000000       1.000000000000000
          0.000000000000000       0.000000000000000       0.000000000000000
# Symm. op. 2       I
         -1.000000000000000       0.000000000000000       0.000000000000000
          0.000000000000000      -1.000000000000000       0.000000000000000
          0.000000000000000       0.000000000000000      -1.000000000000000
         -0.000000000000000      -0.000000000000000       0.000000000000000
# Symm. op. 3     2_1
         -1.000000000000000       0.000000000000000       0.000000000000000
          0.000000000000000      -1.000000000000000       0.000000000000000
          0.000000000000000       0.000000000000000       1.000000000000000
          0.500000000000000       0.500000000000000       0.500000000000000
# Symm. op. 4       n
          1.000000000000000       0.000000000000000       0.000000000000000
          0.000000000000000       1.000000000000000       0.000000000000000
          0.000000000000000       0.000000000000000      -1.000000000000000
          0.500000000000000       0.500000000000000       0.500000000000000
# Symm. op. 5     2_1
          1.000000000000000       0.000000000000000       0.000000000000000
          0.000000000000000      -1.000000000000000       0.000000000000000
          0.000000000000000       0.000000000000000      -1.000000000000000
          0.500000000000000       0.500000000000000       0.000000000000000
# Symm. op. 6       b
         -1.000000000000000       0.000000000000000       0.000000000000000
          0.000000000000000       1.000000000000000       0.000000000000000
          0.000000000000000       0.000000000000000       1.000000000000000
          0.500000000000000       0.500000000000000       0.000000000000000
# Symm. op. 7       2
         -1.000000000000000       0.000000000000000       0.000000000000000
          0.000000000000000       1.000000000000000       0.000000000000000
          0.000000000000000       0.000000000000000      -1.000000000000000
          0.000000000000000       0.000000000000000       0.500000000000000
# Symm. op. 8       c
          1.000000000000000       0.000000000000000       0.000000000000000
          0.000000000000000      -1.000000000000000       0.000000000000000
          0.000000000000000       0.000000000000000       1.000000000000000
          0.000000000000000      -0.000000000000000       0.500000000000000
%ENDBLOCK symmetry_ops

kpoint_mp_grid :    5   5   5

phonon_kpoint_mp_grid :    8   6   4



%BLOCK EXTERNAL_PRESSURE
GPA
090  0   0
    090  0
        090
%ENDBLOCK EXTERNAL_PRESSURE
