# CELL file written 11:24:43 (GMT+1.0) 27th August 2020 from run Cmca4

%BLOCK lattice_cart
   ANG
       1.79421319664765       0.288861823504415E-34    0.00000000000000    
      0.538682715076115E-34    2.99097626604951        0.00000000000000    
       0.00000000000000        0.00000000000000        2.79016459792592    
%ENDBLOCK lattice_cart

%BLOCK cell_constraints
      1   2   3
      0   0   0
%ENDBLOCK cell_constraints

%BLOCK positions_frac
   H              0.000000000000000       0.381250771085357       0.448837266760922
   H              0.000000000000000       0.118749228914642       0.948837266760923
   H              0.000000000000000       0.881250771085357       0.051162733239077
   H             -0.000000000000000       0.618749228914643       0.551162733239077
   H              0.500000000000000       0.881250771085357       0.448837266760922
   H              0.500000000000000       0.618749228914643       0.948837266760923
   H              0.500000000000000       0.381250771085357       0.051162733239077
   H              0.500000000000000       0.118749228914642       0.551162733239077
%ENDBLOCK positions_frac

FIX_COM : true

%BLOCK species_gamma
   radsectesla
   H          267522128.0    
%ENDBLOCK species_gamma

%BLOCK species_pot
   H       0|0.7|2|6|8|10L(qc=10)
%ENDBLOCK species_pot

SYMMETRY_TOL :     0.001000

%BLOCK symmetry_ops
# Symm. op. 1       E
          1.000000000000000       0.000000000000000       0.000000000000000
          0.000000000000000       1.000000000000000       0.000000000000000
          0.000000000000000       0.000000000000000       1.000000000000000
         -0.000000000000000       0.000000000000000       0.000000000000000
# Symm. op. 2       I
         -1.000000000000000       0.000000000000000       0.000000000000000
          0.000000000000000      -1.000000000000000       0.000000000000000
          0.000000000000000       0.000000000000000      -1.000000000000000
         -0.000000000000000       0.000000000000000       0.000000000000000
# Symm. op. 3     2_1
         -1.000000000000000       0.000000000000000       0.000000000000000
          0.000000000000000      -1.000000000000000       0.000000000000000
          0.000000000000000       0.000000000000000       1.000000000000000
          0.500000000000000       0.000000000000000       0.500000000000000
# Symm. op. 4       a
          1.000000000000000       0.000000000000000       0.000000000000000
          0.000000000000000       1.000000000000000       0.000000000000000
          0.000000000000000       0.000000000000000      -1.000000000000000
          0.500000000000000       0.000000000000000       0.500000000000000
# Symm. op. 5       2
          1.000000000000000       0.000000000000000       0.000000000000000
          0.000000000000000      -1.000000000000000       0.000000000000000
          0.000000000000000       0.000000000000000      -1.000000000000000
         -0.000000000000000       0.000000000000000       0.000000000000000
# Symm. op. 6       m
         -1.000000000000000       0.000000000000000       0.000000000000000
          0.000000000000000       1.000000000000000       0.000000000000000
          0.000000000000000       0.000000000000000       1.000000000000000
         -0.000000000000000       0.000000000000000       0.000000000000000
# Symm. op. 7       2
         -1.000000000000000       0.000000000000000       0.000000000000000
          0.000000000000000       1.000000000000000       0.000000000000000
          0.000000000000000       0.000000000000000      -1.000000000000000
          0.500000000000000       0.000000000000000       0.500000000000000
# Symm. op. 8       n
          1.000000000000000       0.000000000000000       0.000000000000000
          0.000000000000000      -1.000000000000000       0.000000000000000
          0.000000000000000       0.000000000000000       1.000000000000000
          0.500000000000000       0.000000000000000       0.500000000000000
# Symm. op. 9       E
          1.000000000000000       0.000000000000000       0.000000000000000
          0.000000000000000       1.000000000000000       0.000000000000000
          0.000000000000000       0.000000000000000       1.000000000000000
          0.500000000000000       0.500000000000000       0.000000000000000
# Symm. op. 10      I
         -1.000000000000000       0.000000000000000       0.000000000000000
          0.000000000000000      -1.000000000000000       0.000000000000000
          0.000000000000000       0.000000000000000      -1.000000000000000
          0.500000000000000       0.500000000000000       0.000000000000000
# Symm. op. 11    2_1
         -1.000000000000000       0.000000000000000       0.000000000000000
          0.000000000000000      -1.000000000000000       0.000000000000000
          0.000000000000000       0.000000000000000       1.000000000000000
          0.000000000000000       0.500000000000000       0.500000000000000
# Symm. op. 12      b
          1.000000000000000       0.000000000000000       0.000000000000000
          0.000000000000000       1.000000000000000       0.000000000000000
          0.000000000000000       0.000000000000000      -1.000000000000000
          0.000000000000000       0.500000000000000       0.500000000000000
# Symm. op. 13    2_1
          1.000000000000000       0.000000000000000       0.000000000000000
          0.000000000000000      -1.000000000000000       0.000000000000000
          0.000000000000000       0.000000000000000      -1.000000000000000
          0.500000000000000       0.500000000000000       0.000000000000000
# Symm. op. 14      b
         -1.000000000000000       0.000000000000000       0.000000000000000
          0.000000000000000       1.000000000000000       0.000000000000000
          0.000000000000000       0.000000000000000       1.000000000000000
          0.500000000000000       0.500000000000000       0.000000000000000
# Symm. op. 15    2_1
         -1.000000000000000       0.000000000000000       0.000000000000000
          0.000000000000000       1.000000000000000       0.000000000000000
          0.000000000000000       0.000000000000000      -1.000000000000000
          0.000000000000000       0.500000000000000       0.500000000000000
# Symm. op. 16      c
          1.000000000000000       0.000000000000000       0.000000000000000
          0.000000000000000      -1.000000000000000       0.000000000000000
          0.000000000000000       0.000000000000000       1.000000000000000
          0.000000000000000       0.500000000000000       0.500000000000000
%ENDBLOCK symmetry_ops

kpoint_mp_grid :   18  18  18

phonon_fine_kpoint_mp_grid :   11  11  11

%BLOCK external_pressure
   GPA
       160.00000000      0.00000000      0.00000000
       160.00000000      0.00000000
       160.00000000
%ENDBLOCK external_pressure

