# CELL file written 18:02:24 (GMT+1.0) 29th July 2020 from run Pbcn

%BLOCK lattice_cart
   ANG
       3.83245992918059      -0.423148754229897E-35    0.00000000000000    
     -0.829587218746931E-35    6.61740817652797        0.00000000000000    
       0.00000000000000        0.00000000000000        6.45106039864857    
%ENDBLOCK lattice_cart

%BLOCK cell_constraints
      1   2   3
      0   0   0
%ENDBLOCK cell_constraints

%BLOCK positions_frac
   H              0.422752842057230       0.126133098826529       0.043330644706569
   H              0.561423990592156       0.204292756905815       0.052197963147240
   H              0.546183736349150       0.543456321133338       0.022565766725964
   H              0.096891642763816       0.170301694199958       0.247273386972180
   H              0.299515748520492       0.376710801384975       0.219875087926946
   H              0.193097608510407       0.454569356246138       0.273296980180392
   H              0.193097608510407       0.545430643753860       0.773296980180392
   H              0.299515748520492       0.623289198615025       0.719875087926945
   H              0.096891642763816       0.829698305800042       0.747273386972183
   H              0.546183736349150       0.456543678866663       0.522565766725965
   H              0.561423990592156       0.795707243094188       0.552197963147240
   H              0.422752842057230       0.873866901173470       0.543330644706570
   H              0.306902391489593       0.954569356246140       0.273296980180392
   H              0.200484251479509       0.876710801384974       0.219875087926946
   H              0.403108357236182       0.670301694199958       0.247273386972180
   H             -0.046183736349149       0.043456321133339       0.022565766725964
   H             -0.061423990592153       0.704292756905812       0.052197963147240
   H              0.077247157942769       0.626133098826530       0.043330644706569
   H              0.693097608510406       0.954569356246140       0.226703019819608
   H              0.799515748520492       0.876710801384974       0.280124912073053
   H              0.596891642763816       0.670301694199958       0.252726613027820
   H              1.046183736349148       0.043456321133339       0.477434233274036
   H              1.061423990592155       0.704292756905812       0.447802036852761
   H              0.922752842057233       0.626133098826530       0.456669355293432
   H              0.806902391489595       0.545430643753860       0.726703019819608
   H              0.700484251479508       0.623289198615025       0.780124912073055
   H              0.903108357236184       0.829698305800042       0.752726613027817
   H              0.453816263650852       0.456543678866663      -0.022565766725964
   H              0.438576009407845       0.795707243094188       0.947802036852760
   H              0.577247157942767       0.873866901173470       0.956669355293430
   H              0.806902391489595       0.454569356246138       0.226703019819608
   H              0.700484251479508       0.376710801384975       0.280124912073053
   H              0.903108357236184       0.170301694199958       0.252726613027820
   H              0.453816263650852       0.543456321133338       0.477434233274036
   H              0.438576009407845       0.204292756905815       0.447802036852761
   H              0.577247157942767       0.126133098826529       0.456669355293432
   H              0.693097608510406       0.045430643753860       0.726703019819608
   H              0.799515748520492       0.123289198615024       0.780124912073055
   H              0.596891642763816       0.329698305800043       0.752726613027817
   H              0.046183736349149      -0.043456321133339      -0.022565766725964
   H              1.061423990592155       0.295707243094186       0.947802036852760
   H              0.922752842057233       0.373866901173472       0.956669355293430
   H              0.306902391489593       0.045430643753860       0.773296980180392
   H              0.200484251479509       0.123289198615024       0.719875087926945
   H              0.403108357236182       0.329698305800043       0.747273386972183
   H              0.953816263650850      -0.043456321133339       0.522565766725965
   H             -0.061423990592153       0.295707243094186       0.552197963147240
   H              0.077247157942769       0.373866901173472       0.543330644706570
%ENDBLOCK positions_frac

FIX_COM : true

%BLOCK species_mass
   AMU
   H          1.007825032    
%ENDBLOCK species_mass

%BLOCK species_gamma
   radsectesla
   H          267522128.0    
%ENDBLOCK species_gamma

%BLOCK species_pot
   H       0|0.7|2|6|8|10L(qc=10)
%ENDBLOCK species_pot

SYMMETRY_TOL :     0.001000

%BLOCK symmetry_ops
# Symm. op. 1       E
          1.000000000000000       0.000000000000000       0.000000000000000
          0.000000000000000       1.000000000000000       0.000000000000000
          0.000000000000000       0.000000000000000       1.000000000000000
          0.000000000000000       0.000000000000000       0.000000000000000
# Symm. op. 2       I
         -1.000000000000000       0.000000000000000       0.000000000000000
          0.000000000000000      -1.000000000000000       0.000000000000000
          0.000000000000000       0.000000000000000      -1.000000000000000
         -0.000000000000000      -0.000000000000000       0.000000000000000
# Symm. op. 3     2_1
         -1.000000000000000       0.000000000000000       0.000000000000000
          0.000000000000000      -1.000000000000000       0.000000000000000
          0.000000000000000       0.000000000000000       1.000000000000000
          0.500000000000000       0.500000000000000       0.500000000000000
# Symm. op. 4       n
          1.000000000000000       0.000000000000000       0.000000000000000
          0.000000000000000       1.000000000000000       0.000000000000000
          0.000000000000000       0.000000000000000      -1.000000000000000
          0.500000000000000       0.500000000000000       0.500000000000000
# Symm. op. 5     2_1
          1.000000000000000       0.000000000000000       0.000000000000000
          0.000000000000000      -1.000000000000000       0.000000000000000
          0.000000000000000       0.000000000000000      -1.000000000000000
          0.500000000000000       0.500000000000000       0.000000000000000
# Symm. op. 6       b
         -1.000000000000000       0.000000000000000       0.000000000000000
          0.000000000000000       1.000000000000000       0.000000000000000
          0.000000000000000       0.000000000000000       1.000000000000000
          0.500000000000000       0.500000000000000       0.000000000000000
# Symm. op. 7       2
         -1.000000000000000       0.000000000000000       0.000000000000000
          0.000000000000000       1.000000000000000       0.000000000000000
          0.000000000000000       0.000000000000000      -1.000000000000000
          0.000000000000000       0.000000000000000       0.500000000000000
# Symm. op. 8       c
          1.000000000000000       0.000000000000000       0.000000000000000
          0.000000000000000      -1.000000000000000       0.000000000000000
          0.000000000000000       0.000000000000000       1.000000000000000
          0.000000000000000      -0.000000000000000       0.500000000000000
%ENDBLOCK symmetry_ops

kpoint_mp_grid :    5   5   5

phonon_kpoint_mp_grid :    8   6   4



%BLOCK EXTERNAL_PRESSURE
GPA
030  0   0
    030  0
        030
%ENDBLOCK EXTERNAL_PRESSURE
