|40,30,5|
# CELL file written 03:36:44 (GMT+1.0) 29th July 2020 from run Pbcn

%BLOCK lattice_cart
   ANG
       3.68749493173156      -0.993231272688856E-34    0.00000000000000    
     -0.173135345406598E-33    6.40493891489058        0.00000000000000    
       0.00000000000000        0.00000000000000        6.29665771635777    
%ENDBLOCK lattice_cart

%BLOCK cell_constraints
      1   2   3
      0   0   0
%ENDBLOCK cell_constraints

%BLOCK positions_frac
   H              0.417929858582889       0.127130034967890       0.028165172720489
   H              0.564701183507259       0.202207266381609       0.054151373092110
   H              0.560282851891557       0.545154212143074       0.005425863525213
   H              0.100462757983241       0.168929813187972       0.242641341531678
   H              0.295676367284752       0.366888853721150       0.234557287305087
   H              0.195438708598125       0.464814766934511       0.260489059568538
   H              0.195438708598125       0.535185233065488       0.760489059568538
   H              0.295676367284752       0.633111146278851       0.734557287305085
   H              0.100462757983241       0.831070186812027       0.742641341531681
   H              0.560282851891557       0.454845787856927       0.505425863525213
   H              0.564701183507259       0.797792733618394       0.554151373092110
   H              0.417929858582889       0.872869965032110       0.528165172720490
   H              0.304561291401875       0.964814766934512       0.260489059568538
   H              0.204323632715249       0.866888853721148       0.234557287305087
   H              0.399537242016757       0.668929813187973       0.242641341531678
   H             -0.060282851891556       0.045154212143075       0.005425863525213
   H             -0.064701183507256       0.702207266381606       0.054151373092110
   H              0.082070141417110       0.627130034967890       0.028165172720489
   H              0.695438708598125       0.964814766934512       0.239510940431462
   H              0.795676367284752       0.866888853721148       0.265442712694913
   H              0.600462757983241       0.668929813187973       0.257358658468322
   H              1.060282851891556       0.045154212143075       0.494574136474787
   H              1.064701183507257       0.702207266381606       0.445848626907890
   H              0.917929858582891       0.627130034967890       0.471834827279512
   H              0.804561291401876       0.535185233065488       0.739510940431462
   H              0.704323632715248       0.633111146278851       0.765442712694915
   H              0.899537242016759       0.831070186812027       0.757358658468319
   H              0.439717148108445       0.454845787856927      -0.005425863525213
   H              0.435298816492742       0.797792733618394       0.945848626907890
   H              0.582070141417109       0.872869965032110       0.971834827279510
   H              0.804561291401876       0.464814766934511       0.239510940431462
   H              0.704323632715248       0.366888853721150       0.265442712694913
   H              0.899537242016759       0.168929813187972       0.257358658468322
   H              0.439717148108445       0.545154212143074       0.494574136474787
   H              0.435298816492742       0.202207266381609       0.445848626907890
   H              0.582070141417109       0.127130034967890       0.471834827279512
   H              0.695438708598125       0.035185233065488       0.739510940431462
   H              0.795676367284752       0.133111146278850       0.765442712694915
   H              0.600462757983241       0.331070186812028       0.757358658468319
   H              0.060282851891556      -0.045154212143075      -0.005425863525213
   H              1.064701183507257       0.297792733618392       0.945848626907890
   H              0.917929858582891       0.372869965032112       0.971834827279510
   H              0.304561291401875       0.035185233065488       0.760489059568538
   H              0.204323632715249       0.133111146278850       0.734557287305085
   H              0.399537242016757       0.331070186812028       0.742641341531681
   H              0.939717148108443      -0.045154212143075       0.505425863525213
   H             -0.064701183507256       0.297792733618392       0.554151373092110
   H              0.082070141417110       0.372869965032112       0.528165172720490
%ENDBLOCK positions_frac

FIX_COM : true

%BLOCK species_mass
   AMU
   H          1.007825032    
%ENDBLOCK species_mass

%BLOCK species_gamma
   radsectesla
   H          267522128.0    
%ENDBLOCK species_gamma

%BLOCK species_pot
   H       0|0.7|2|6|8|10L(qc=10)
%ENDBLOCK species_pot

SYMMETRY_TOL :     0.001000

%BLOCK symmetry_ops
# Symm. op. 1       E
          1.000000000000000       0.000000000000000       0.000000000000000
          0.000000000000000       1.000000000000000       0.000000000000000
          0.000000000000000       0.000000000000000       1.000000000000000
          0.000000000000000       0.000000000000000       0.000000000000000
# Symm. op. 2       I
         -1.000000000000000       0.000000000000000       0.000000000000000
          0.000000000000000      -1.000000000000000       0.000000000000000
          0.000000000000000       0.000000000000000      -1.000000000000000
         -0.000000000000000      -0.000000000000000       0.000000000000000
# Symm. op. 3     2_1
         -1.000000000000000       0.000000000000000       0.000000000000000
          0.000000000000000      -1.000000000000000       0.000000000000000
          0.000000000000000       0.000000000000000       1.000000000000000
          0.500000000000000       0.500000000000000       0.500000000000000
# Symm. op. 4       n
          1.000000000000000       0.000000000000000       0.000000000000000
          0.000000000000000       1.000000000000000       0.000000000000000
          0.000000000000000       0.000000000000000      -1.000000000000000
          0.500000000000000       0.500000000000000       0.500000000000000
# Symm. op. 5     2_1
          1.000000000000000       0.000000000000000       0.000000000000000
          0.000000000000000      -1.000000000000000       0.000000000000000
          0.000000000000000       0.000000000000000      -1.000000000000000
          0.500000000000000       0.500000000000000       0.000000000000000
# Symm. op. 6       b
         -1.000000000000000       0.000000000000000       0.000000000000000
          0.000000000000000       1.000000000000000       0.000000000000000
          0.000000000000000       0.000000000000000       1.000000000000000
          0.500000000000000       0.500000000000000       0.000000000000000
# Symm. op. 7       2
         -1.000000000000000       0.000000000000000       0.000000000000000
          0.000000000000000       1.000000000000000       0.000000000000000
          0.000000000000000       0.000000000000000      -1.000000000000000
          0.000000000000000       0.000000000000000       0.500000000000000
# Symm. op. 8       c
          1.000000000000000       0.000000000000000       0.000000000000000
          0.000000000000000      -1.000000000000000       0.000000000000000
          0.000000000000000       0.000000000000000       1.000000000000000
          0.000000000000000      -0.000000000000000       0.500000000000000
%ENDBLOCK symmetry_ops

kpoint_mp_grid :    5   5   5

phonon_kpoint_mp_grid :    8   6   4
