# CELL file written 18:41:14 (GMT+1.0) 21st May 2020 from run Pca21_30GPa

%BLOCK lattice_cart
   ANG
       3.76286449022588        0.00000000000000        0.00000000000000    
       0.00000000000000        2.18538439223130        0.00000000000000    
       0.00000000000000        0.00000000000000        3.50696515718021    
%ENDBLOCK lattice_cart

%BLOCK cell_constraints
      1   2   3
      0   0   0
%ENDBLOCK cell_constraints

%BLOCK positions_frac
   H              0.360065571328581       0.148931444515316       0.381589332716375
   H              0.472746140852690       0.354776151503748       0.497310900850525
   H              0.972746140852690       0.645223848496250       0.497310900850525
   H              0.860065571328581       0.851068555484684       0.381589332716375
   H              0.027253859147310       0.354776151503748       0.997310900850526
   H              0.139934428671418       0.148931444515316       0.881589332716375
   H              0.527253859147310       0.645223848496250       0.997310900850526
   H              0.639934428671419       0.851068555484684       0.881589332716375
%ENDBLOCK positions_frac

FIX_COM : true

%BLOCK species_mass
   AMU
   H          1.007825032    
%ENDBLOCK species_mass

%BLOCK species_gamma
   radsectesla
   H          267522128.0    
%ENDBLOCK species_gamma

%BLOCK species_pot
   H       0|0.7|2|6|8|10L(qc=10)
%ENDBLOCK species_pot

SYMMETRY_TOL :     0.001000

%BLOCK symmetry_ops
# Symm. op. 1       E
          1.000000000000000       0.000000000000000       0.000000000000000
          0.000000000000000       1.000000000000000       0.000000000000000
          0.000000000000000       0.000000000000000       1.000000000000000
          0.000000000000000       0.000000000000000       0.000000000000000
# Symm. op. 2     2_1
         -1.000000000000000       0.000000000000000       0.000000000000000
          0.000000000000000      -1.000000000000000       0.000000000000000
          0.000000000000000       0.000000000000000       1.000000000000000
         -0.000000000000000      -0.000000000000000       0.500000000000000
# Symm. op. 3       c
         -1.000000000000000       0.000000000000000       0.000000000000000
          0.000000000000000       1.000000000000000       0.000000000000000
          0.000000000000000       0.000000000000000       1.000000000000000
          0.500000000000000       0.000000000000000       0.500000000000000
# Symm. op. 4       a
          1.000000000000000       0.000000000000000       0.000000000000000
          0.000000000000000      -1.000000000000000       0.000000000000000
          0.000000000000000       0.000000000000000       1.000000000000000
          0.500000000000000      -0.000000000000000       0.000000000000000
%ENDBLOCK symmetry_ops

kpoint_mp_grid :    2  2   2

phonon_kpoint_mp_grid :    1   1   1

%BLOCK external_pressure
   GPA
        30.00000000      0.00000000      0.00000000
        30.00000000      0.00000000
        30.00000000
%ENDBLOCK external_pressure

