# CELL file written 14:00:41 (GMT+1.0) 28th July 2020 from run Pbcn

%BLOCK lattice_cart
   ANG
       3.58770946999888      -0.139688817577532E-33    0.00000000000000    
     -0.243194607103038E-33    6.23337726089278        0.00000000000000    
       0.00000000000000        0.00000000000000        6.16540775856314    
%ENDBLOCK lattice_cart

%BLOCK cell_constraints
      1   2   3
      0   0   0
%ENDBLOCK cell_constraints

%BLOCK positions_frac
   H              0.414870870483040       0.125753926932634       0.025962103249318
   H              0.565960891822626       0.202991249398909       0.050602993729419
   H              0.562432537760817       0.546192006036953       0.004124263632510
   H              0.104091076119673       0.169026389564967       0.245000454847970
   H              0.297128485457678       0.364650391234465       0.237131901958730
   H              0.193679583698688       0.466990021189264       0.257707927678010
   H              0.193679583698688       0.533009978810735       0.757707927678010
   H              0.297128485457678       0.635349608765535       0.737131901958728
   H              0.104091076119673       0.830973610435032       0.745000454847972
   H              0.562432537760817       0.453807993963048       0.504124263632510
   H              0.565960891822626       0.797008750601094       0.550602993729419
   H              0.414870870483040       0.874246073067366       0.525962103249319
   H              0.306320416301312       0.966990021189265       0.257707927678010
   H              0.202871514542323       0.864650391234464       0.237131901958730
   H              0.395908923880326       0.669026389564968       0.245000454847970
   H             -0.062432537760816       0.046192006036954       0.004124263632510
   H             -0.065960891822623       0.702991249398906       0.050602993729419
   H              0.085129129516959       0.625753926932634       0.025962103249318
   H              0.693679583698688       0.966990021189265       0.242292072321990
   H              0.797128485457678       0.864650391234464       0.262868098041270
   H              0.604091076119673       0.669026389564968       0.254999545152030
   H              1.062432537760816       0.046192006036954       0.495875736367490
   H              1.065960891822624       0.702991249398906       0.449397006270581
   H              0.914870870483042       0.625753926932634       0.474037896750683
   H              0.806320416301313       0.533009978810735       0.742292072321990
   H              0.702871514542322       0.635349608765535       0.762868098041272
   H              0.895908923880327       0.830973610435032       0.754999545152028
   H              0.437567462239185       0.453807993963048      -0.004124263632510
   H              0.434039108177375       0.797008750601094       0.949397006270581
   H              0.585129129516958       0.874246073067366       0.974037896750681
   H              0.806320416301313       0.466990021189264       0.242292072321990
   H              0.702871514542322       0.364650391234465       0.262868098041270
   H              0.895908923880327       0.169026389564967       0.254999545152030
   H              0.437567462239185       0.546192006036953       0.495875736367490
   H              0.434039108177375       0.202991249398909       0.449397006270581
   H              0.585129129516958       0.125753926932634       0.474037896750683
   H              0.693679583698688       0.033009978810735       0.742292072321990
   H              0.797128485457678       0.135349608765535       0.762868098041272
   H              0.604091076119673       0.330973610435033       0.754999545152028
   H              0.062432537760816      -0.046192006036954      -0.004124263632510
   H              1.065960891822624       0.297008750601092       0.949397006270581
   H              0.914870870483042       0.374246073067368       0.974037896750681
   H              0.306320416301312       0.033009978810735       0.757707927678010
   H              0.202871514542323       0.135349608765535       0.737131901958728
   H              0.395908923880326       0.330973610435033       0.745000454847972
   H              0.937567462239183      -0.046192006036954       0.504124263632510
   H             -0.065960891822623       0.297008750601092       0.550602993729419
   H              0.085129129516959       0.374246073067368       0.525962103249319
%ENDBLOCK positions_frac

FIX_COM : true

%BLOCK species_mass
   AMU
   H          1.007825032    
%ENDBLOCK species_mass

%BLOCK species_gamma
   radsectesla
   H          267522128.0    
%ENDBLOCK species_gamma

%BLOCK species_pot
   H       0|0.7|2|6|8|10L(qc=10)
%ENDBLOCK species_pot

SYMMETRY_TOL :     0.001000

%BLOCK symmetry_ops
# Symm. op. 1       E
          1.000000000000000       0.000000000000000       0.000000000000000
          0.000000000000000       1.000000000000000       0.000000000000000
          0.000000000000000       0.000000000000000       1.000000000000000
          0.000000000000000       0.000000000000000       0.000000000000000
# Symm. op. 2       I
         -1.000000000000000       0.000000000000000       0.000000000000000
          0.000000000000000      -1.000000000000000       0.000000000000000
          0.000000000000000       0.000000000000000      -1.000000000000000
         -0.000000000000000      -0.000000000000000       0.000000000000000
# Symm. op. 3     2_1
         -1.000000000000000       0.000000000000000       0.000000000000000
          0.000000000000000      -1.000000000000000       0.000000000000000
          0.000000000000000       0.000000000000000       1.000000000000000
          0.500000000000000       0.500000000000000       0.500000000000000
# Symm. op. 4       n
          1.000000000000000       0.000000000000000       0.000000000000000
          0.000000000000000       1.000000000000000       0.000000000000000
          0.000000000000000       0.000000000000000      -1.000000000000000
          0.500000000000000       0.500000000000000       0.500000000000000
# Symm. op. 5     2_1
          1.000000000000000       0.000000000000000       0.000000000000000
          0.000000000000000      -1.000000000000000       0.000000000000000
          0.000000000000000       0.000000000000000      -1.000000000000000
          0.500000000000000       0.500000000000000       0.000000000000000
# Symm. op. 6       b
         -1.000000000000000       0.000000000000000       0.000000000000000
          0.000000000000000       1.000000000000000       0.000000000000000
          0.000000000000000       0.000000000000000       1.000000000000000
          0.500000000000000       0.500000000000000       0.000000000000000
# Symm. op. 7       2
         -1.000000000000000       0.000000000000000       0.000000000000000
          0.000000000000000       1.000000000000000       0.000000000000000
          0.000000000000000       0.000000000000000      -1.000000000000000
          0.000000000000000       0.000000000000000       0.500000000000000
# Symm. op. 8       c
          1.000000000000000       0.000000000000000       0.000000000000000
          0.000000000000000      -1.000000000000000       0.000000000000000
          0.000000000000000       0.000000000000000       1.000000000000000
          0.000000000000000      -0.000000000000000       0.500000000000000
%ENDBLOCK symmetry_ops

kpoint_mp_grid :    5   5   5

phonon_kpoint_mp_grid :    8   6   4



%BLOCK EXTERNAL_PRESSURE
GPA
050  0   0
    050  0
        050
%ENDBLOCK EXTERNAL_PRESSURE
