# CELL file written 17:23:00 (GMT+1.0) 11th August 2020 from run C2c

%BLOCK lattice_cart
   ANG
       4.94846223446994        0.00000000000000      -0.135167220509094E-01
       0.00000000000000        2.83927013113964        0.00000000000000    
      -3.29576843530216        0.00000000000000        2.60222386609738    
%ENDBLOCK lattice_cart

%BLOCK cell_constraints
      1   2   3
      0   5   0
%ENDBLOCK cell_constraints

%BLOCK positions_frac
   H              0.192742983722217      -0.096299491137660       0.253120352635134
   H              0.356734299008717       0.139177679789613       0.254140467697208
   H              0.500000000000000       0.141201624627385       0.750000000000000
   H              0.500000000000000       0.413014402350843       0.750000000000000
   H              0.807257016277783      -0.096299491137660       0.246879647364866
   H              0.643265700991283       0.139177679789613       0.245859532302792
   H              0.692742983722217       0.403700508862340       0.253120352635134
   H              0.856734299008717       0.639177679789613       0.254140467697208
   H              0.000000000000000       0.641201624627384       0.750000000000000
   H              0.000000000000000       0.913014402350843       0.750000000000000
   H              0.307257016277783       0.403700508862340       0.246879647364866
   H              0.143265700991283       0.639177679789613       0.245859532302792
   H              0.307257016277783       0.596299491137661       0.746879647364866
   H              0.143265700991283       0.360822320210387       0.745859532302792
   H             -0.000000000000000       0.358798375372615       0.250000000000000
   H              0.000000000000000       0.086985597649157       0.250000000000000
   H              0.692742983722217       0.596299491137661       0.753120352635134
   H              0.856734299008717       0.360822320210387       0.754140467697208
   H              0.807257016277783       1.096299491137661       0.746879647364866
   H              0.643265700991283       0.860822320210387       0.745859532302792
   H              0.500000000000000       0.858798375372616       0.250000000000000
   H              0.500000000000000       0.586985597649157       0.250000000000000
   H              0.192742983722217       1.096299491137661       0.753120352635134
   H              0.356734299008717       0.860822320210387       0.754140467697208
%ENDBLOCK positions_frac

FIX_COM : true

%BLOCK species_gamma
   radsectesla
   H          267522128.0    
%ENDBLOCK species_gamma

%BLOCK species_pot
   H       0|0.7|2|6|8|10L(qc=10)
%ENDBLOCK species_pot

SYMMETRY_TOL :     0.001000

%BLOCK symmetry_ops
# Symm. op. 1       E
          1.000000000000000       0.000000000000000       0.000000000000000
          0.000000000000000       1.000000000000000       0.000000000000000
         -0.000000000000000       0.000000000000000       1.000000000000000
          0.000000000000000       0.000000000000000       0.000000000000000
# Symm. op. 2       I
         -1.000000000000000       0.000000000000000       0.000000000000000
          0.000000000000000      -1.000000000000000       0.000000000000000
          0.000000000000000       0.000000000000000      -1.000000000000000
         -0.000000000000000      -0.000000000000000      -0.000000000000000
# Symm. op. 3     2_1
         -1.000000000000000       0.000000000000000       0.000000000000000
          0.000000000000000       1.000000000000000       0.000000000000000
          0.000000000000000       0.000000000000000      -1.000000000000000
          0.500000000000000       0.500000000000000       0.500000000000000
# Symm. op. 4       n
          1.000000000000000       0.000000000000000       0.000000000000000
          0.000000000000000      -1.000000000000000       0.000000000000000
         -0.000000000000000       0.000000000000000       1.000000000000000
          0.500000000000000       0.500000000000000       0.500000000000000
# Symm. op. 5       E
          1.000000000000000       0.000000000000000       0.000000000000000
          0.000000000000000       1.000000000000000       0.000000000000000
         -0.000000000000000       0.000000000000000       1.000000000000000
          0.500000000000000       0.500000000000000       0.000000000000000
# Symm. op. 6       I
         -1.000000000000000       0.000000000000000       0.000000000000000
          0.000000000000000      -1.000000000000000       0.000000000000000
          0.000000000000000       0.000000000000000      -1.000000000000000
          0.500000000000000       0.500000000000000      -0.000000000000000
# Symm. op. 7       2
         -1.000000000000000       0.000000000000000       0.000000000000000
          0.000000000000000       1.000000000000000       0.000000000000000
          0.000000000000000       0.000000000000000      -1.000000000000000
         -0.000000000000000       0.000000000000000       0.500000000000000
# Symm. op. 8       c
          1.000000000000000       0.000000000000000       0.000000000000000
          0.000000000000000      -1.000000000000000       0.000000000000000
         -0.000000000000000       0.000000000000000       1.000000000000000
          0.000000000000000      -0.000000000000000       0.500000000000000
%ENDBLOCK symmetry_ops

kpoint_mp_grid :   10  10  10

%BLOCK external_pressure
   GPA
       270.00000000      0.00000000      0.00000000
       270.00000000      0.00000000
       270.00000000
%ENDBLOCK external_pressure

