# CELL file written 19:53:07 (GMT+1.0) 11th August 2020 from run C2c

%BLOCK lattice_cart
   ANG
       6.05504375555002        0.00000000000000      -0.100031290678923E-01
       0.00000000000000        3.48871546738841        0.00000000000000    
      -4.02949301958411        0.00000000000000        3.17839170312754    
%ENDBLOCK lattice_cart

%BLOCK cell_constraints
      1   2   3
      0   5   0
%ENDBLOCK cell_constraints

%BLOCK positions_frac
   H              0.245083264058874      -0.104113610295398       0.258284058361087
   H              0.360202327846573       0.302232529046511       0.235503182289349
   H              0.500000000000000       0.093300150356460       0.750000000000000
   H              0.500000000000000       0.304228112347143       0.750000000000000
   H              0.754916735941127      -0.104113610295398       0.241715941638913
   H              0.639797672153427       0.302232529046511       0.264496817710651
   H              0.745083264058873       0.395886389704601       0.258284058361087
   H              0.860202327846573       0.802232529046512       0.235503182289349
   H              0.000000000000000       0.593300150356459       0.750000000000000
   H              0.000000000000000       0.804228112347143       0.750000000000000
   H              0.254916735941127       0.395886389704601       0.241715941638913
   H              0.139797672153426       0.802232529046512       0.264496817710651
   H              0.254916735941127       0.604113610295400       0.741715941638913
   H              0.139797672153426       0.197767470953489       0.764496817710652
   H              0.000000000000000       0.406699849643541       0.250000000000000
   H              0.000000000000000       0.195771887652857       0.250000000000000
   H              0.745083264058873       0.604113610295400       0.758284058361087
   H              0.860202327846573       0.197767470953489       0.735503182289348
   H              0.754916735941127       1.104113610295401       0.741715941638913
   H              0.639797672153427       0.697767470953488       0.764496817710652
   H              0.500000000000000       0.906699849643541       0.250000000000000
   H              0.500000000000000       0.695771887652857       0.250000000000000
   H              0.245083264058874       1.104113610295401       0.758284058361087
   H              0.360202327846573       0.697767470953488       0.735503182289348
%ENDBLOCK positions_frac

FIX_COM : true

%BLOCK species_gamma
   radsectesla
   H          267522128.0    
%ENDBLOCK species_gamma

%BLOCK species_pot
   H       0|0.7|2|6|8|10L(qc=10)
%ENDBLOCK species_pot

SYMMETRY_TOL :     0.001000

%BLOCK symmetry_ops
# Symm. op. 1       E
          1.000000000000000       0.000000000000000       0.000000000000000
          0.000000000000000       1.000000000000000       0.000000000000000
         -0.000000000000000       0.000000000000000       1.000000000000000
          0.000000000000000       0.000000000000000       0.000000000000000
# Symm. op. 2       I
         -1.000000000000000       0.000000000000000       0.000000000000000
          0.000000000000000      -1.000000000000000       0.000000000000000
          0.000000000000000       0.000000000000000      -1.000000000000000
         -0.000000000000000      -0.000000000000000      -0.000000000000000
# Symm. op. 3     2_1
         -1.000000000000000       0.000000000000000       0.000000000000000
          0.000000000000000       1.000000000000000       0.000000000000000
          0.000000000000000       0.000000000000000      -1.000000000000000
          0.500000000000000       0.500000000000000       0.500000000000000
# Symm. op. 4       n
          1.000000000000000       0.000000000000000       0.000000000000000
          0.000000000000000      -1.000000000000000       0.000000000000000
         -0.000000000000000       0.000000000000000       1.000000000000000
          0.500000000000000       0.500000000000000       0.500000000000000
# Symm. op. 5       E
          1.000000000000000       0.000000000000000       0.000000000000000
          0.000000000000000       1.000000000000000       0.000000000000000
         -0.000000000000000       0.000000000000000       1.000000000000000
          0.500000000000000       0.500000000000000       0.000000000000000
# Symm. op. 6       I
         -1.000000000000000       0.000000000000000       0.000000000000000
          0.000000000000000      -1.000000000000000       0.000000000000000
          0.000000000000000       0.000000000000000      -1.000000000000000
          0.500000000000000       0.500000000000000      -0.000000000000000
# Symm. op. 7       2
         -1.000000000000000       0.000000000000000       0.000000000000000
          0.000000000000000       1.000000000000000       0.000000000000000
          0.000000000000000       0.000000000000000      -1.000000000000000
         -0.000000000000000       0.000000000000000       0.500000000000000
# Symm. op. 8       c
          1.000000000000000       0.000000000000000       0.000000000000000
          0.000000000000000      -1.000000000000000       0.000000000000000
         -0.000000000000000       0.000000000000000       1.000000000000000
          0.000000000000000      -0.000000000000000       0.500000000000000
%ENDBLOCK symmetry_ops

kpoint_mp_grid :   10  10  10

%BLOCK external_pressure
   GPA
        60.00000000      0.00000000      0.00000000
        60.00000000      0.00000000
        60.00000000
%ENDBLOCK external_pressure

