# CELL file written 17:37:07 (GMT+1.0) 11th August 2020 from run C2c

%BLOCK lattice_cart
   ANG
       5.05263970079517        0.00000000000000      -0.153760283311180E-01
       0.00000000000000        2.87193112830378        0.00000000000000    
      -3.36601362903040        0.00000000000000        2.64494487802654    
%ENDBLOCK lattice_cart

%BLOCK cell_constraints
      1   2   3
      0   5   0
%ENDBLOCK cell_constraints

%BLOCK positions_frac
   H              0.191821223908999      -0.094782918639020       0.253942076988171
   H              0.354259456737457       0.143744553482654       0.253222373781706
   H              0.500000000000000       0.136012409369324       0.750000000000000
   H              0.500000000000000       0.404088380189908       0.750000000000000
   H              0.808178776091001      -0.094782918639020       0.246057923011829
   H              0.645740543262543       0.143744553482654       0.246777626218294
   H              0.691821223908999       0.405217081360980       0.253942076988171
   H              0.854259456737457       0.643744553482654       0.253222373781706
   H              0.000000000000000       0.636012409369323       0.750000000000000
   H             -0.000000000000000       0.904088380189908       0.750000000000000
   H              0.308178776091001       0.405217081360980       0.246057923011829
   H              0.145740543262543       0.643744553482654       0.246777626218294
   H              0.308178776091001       0.594782918639022       0.746057923011829
   H              0.145740543262543       0.356255446517346       0.746777626218294
   H              0.000000000000000       0.363987590630676       0.250000000000000
   H              0.000000000000000       0.095911619810092       0.250000000000000
   H              0.691821223908999       0.594782918639022       0.753942076988171
   H              0.854259456737457       0.356255446517346       0.753222373781706
   H              0.808178776091001       1.094782918639021       0.746057923011829
   H              0.645740543262543       0.856255446517346       0.746777626218294
   H              0.500000000000000       0.863987590630677       0.250000000000000
   H              0.500000000000000       0.595911619810092       0.250000000000000
   H              0.191821223908999       1.094782918639021       0.753942076988171
   H              0.354259456737457       0.856255446517346       0.753222373781706
%ENDBLOCK positions_frac

FIX_COM : true

%BLOCK species_gamma
   radsectesla
   H          267522128.0    
%ENDBLOCK species_gamma

%BLOCK species_pot
   H       0|0.7|2|6|8|10L(qc=10)
%ENDBLOCK species_pot

SYMMETRY_TOL :     0.001000

%BLOCK symmetry_ops
# Symm. op. 1       E
          1.000000000000000       0.000000000000000       0.000000000000000
          0.000000000000000       1.000000000000000       0.000000000000000
         -0.000000000000000       0.000000000000000       1.000000000000000
          0.000000000000000       0.000000000000000       0.000000000000000
# Symm. op. 2       I
         -1.000000000000000       0.000000000000000       0.000000000000000
          0.000000000000000      -1.000000000000000       0.000000000000000
          0.000000000000000       0.000000000000000      -1.000000000000000
         -0.000000000000000      -0.000000000000000      -0.000000000000000
# Symm. op. 3     2_1
         -1.000000000000000       0.000000000000000       0.000000000000000
          0.000000000000000       1.000000000000000       0.000000000000000
          0.000000000000000       0.000000000000000      -1.000000000000000
          0.500000000000000       0.500000000000000       0.500000000000000
# Symm. op. 4       n
          1.000000000000000       0.000000000000000       0.000000000000000
          0.000000000000000      -1.000000000000000       0.000000000000000
         -0.000000000000000       0.000000000000000       1.000000000000000
          0.500000000000000       0.500000000000000       0.500000000000000
# Symm. op. 5       E
          1.000000000000000       0.000000000000000       0.000000000000000
          0.000000000000000       1.000000000000000       0.000000000000000
         -0.000000000000000       0.000000000000000       1.000000000000000
          0.500000000000000       0.500000000000000       0.000000000000000
# Symm. op. 6       I
         -1.000000000000000       0.000000000000000       0.000000000000000
          0.000000000000000      -1.000000000000000       0.000000000000000
          0.000000000000000       0.000000000000000      -1.000000000000000
          0.500000000000000       0.500000000000000      -0.000000000000000
# Symm. op. 7       2
         -1.000000000000000       0.000000000000000       0.000000000000000
          0.000000000000000       1.000000000000000       0.000000000000000
          0.000000000000000       0.000000000000000      -1.000000000000000
         -0.000000000000000       0.000000000000000       0.500000000000000
# Symm. op. 8       c
          1.000000000000000       0.000000000000000       0.000000000000000
          0.000000000000000      -1.000000000000000       0.000000000000000
         -0.000000000000000       0.000000000000000       1.000000000000000
          0.000000000000000      -0.000000000000000       0.500000000000000
%ENDBLOCK symmetry_ops

kpoint_mp_grid :   10  10  10

%BLOCK external_pressure
   GPA
       240.00000000      0.00000000      0.00000000
       240.00000000      0.00000000
       240.00000000
%ENDBLOCK external_pressure

