# CELL file written 06:54:21 (GMT+1.0) 14th August 2020 from run Cmca-12

%BLOCK lattice_cart
   ANG
       3.02083268696248       0.113107268882133E-10   0.183180381542636E-11
      0.210033903903639E-10    5.61802955273064       0.825088405848913E-08
      0.155775574376055E-11   0.119030199039399E-08    3.34146556606089    
%ENDBLOCK lattice_cart

%BLOCK positions_frac
   H              0.000000000054212       0.001656394777416       0.112696421296374
   H             -0.000000000006111       0.134786110930812       0.459699382355089
   H             -0.000000000010466       0.245358129547719       0.335985293276791
   H              0.500000000002781       0.245358146902456       0.164014687254036
   H              0.499999999984182       0.134786125098911       0.040300638857861
   H              0.500000000040046       0.001656387324634       0.387303577912738
   H              0.499999999983212       0.254641867994723       0.664014706060647
   H              0.500000000002610       0.365213873509703       0.540300624779588
   H              0.499999999967993       0.498343609912810       0.887303566986913
   H              0.499999999993116       0.754641865454964       0.835985300225678
   H              0.500000000023666       0.865213880304841       0.959699393718422
   H              0.499999999956475       0.998343593843664       0.612696425964305
   H              0.500000000010132       0.745358128779174       0.335985300571762
   H              0.500000000004754       0.634786118647924       0.459699392218890
   H              0.500000000027553       0.501656413259210       0.112696439830487
   H              0.000000000026777       0.745358133065904       0.164014694342559
   H             -0.000000000023252       0.634786120070940       0.040300613365681
   H              0.000000000031321       0.501656408271338       0.387303556930109
   H              0.000000000033096       0.754641872978346       0.664014696881832
   H             -0.000000000017883       0.865213879818857       0.540300598439392
   H             -0.000000000048748       0.998343590858892       0.887303567140154
   H             -0.000000000027807       0.254641861198670       0.835985317224293
   H              0.000000000016999       0.365213877484970       0.959699380698610
   H             -0.000000000024662       0.498343609963120       0.612696423667786
%ENDBLOCK positions_frac

FIX_COM : true

%BLOCK species_mass
   AMU
   H          1.007825032    
%ENDBLOCK species_mass

%BLOCK species_gamma
   radsectesla
   H          267522128.0    
%ENDBLOCK species_gamma

%BLOCK species_pot
   H       1|0.6|13|15|17|10(qc=8)
%ENDBLOCK species_pot

SYMMETRY_TOL :     0.001000

%BLOCK symmetry_ops
# Symm. op. 1       E
          1.000000000000000       0.000000000000000       0.000000000000000
          0.000000000000000       1.000000000000000       0.000000000000000
          0.000000000000000       0.000000000000000       1.000000000000000
          0.000000000000000       0.000000000000000       0.000000000000000
%ENDBLOCK symmetry_ops

kpoint_mp_grid :   10  10  10



%BLOCK EXTERNAL_PRESSURE
GPA
060  0   0
    060  0
        060
%ENDBLOCK EXTERNAL_PRESSURE
