# CELL file written 01:18:10 (GMT+1.0) 14th August 2020 from run Cmca-12

%BLOCK lattice_cart
   ANG
       2.75063231819295       0.716808829822363E-12   0.151391478703615E-12
      0.119544751434185E-11    5.09793338844935       0.325454984821262E-08
     -0.275151817753833E-12   0.182608423455247E-08    3.06375901171876    
%ENDBLOCK lattice_cart

%BLOCK positions_frac
   H              0.000000000004618       0.000726123121587       0.124886315060364
   H             -0.000000000016490       0.133067919390757       0.455218604836783
   H              0.000000000020459       0.257687017321738       0.323337679054816
   H              0.499999999977605       0.257687007047094       0.176662317680049
   H              0.500000000037518       0.133067919292666       0.044781386281463
   H              0.499999999961253       0.000726121081666       0.375113676802063
   H              0.500000000010742       0.242312994668984       0.676662308899496
   H              0.499999999996978       0.366932072281580       0.544781397720309
   H              0.499999999990247       0.499273877154189       0.875113682251988
   H              0.499999999964166       0.742312989152693       0.823337684261049
   H              0.500000000028424       0.866932075656765       0.955218606426385
   H              0.500000000027231       0.999273877463050       0.624886321688807
   H              0.499999999988582       0.757687007611519       0.323337682749263
   H              0.500000000007987       0.633067923112603       0.455218611173887
   H              0.500000000007571       0.500726119854318       0.124886325524312
   H             -0.000000000022474       0.757687011495663       0.176662314426727
   H              0.000000000023325       0.633067925684433       0.044781399547188
   H              0.000000000031489       0.500726123807797       0.375113684252679
   H             -0.000000000005223       0.742312990302934       0.676662323520421
   H              0.000000000000854       0.866932078257631       0.544781391787784
   H             -0.000000000010489       0.999273878796671       0.875113672748065
   H              0.000000000023664       0.242312994143802       0.823337681114295
   H             -0.000000000022381       0.366932074900409       0.955218606642783
   H             -0.000000000025656       0.499273878399453       0.624886325549024
%ENDBLOCK positions_frac

FIX_COM : true

%BLOCK species_mass
   AMU
   H          1.007825032    
%ENDBLOCK species_mass

%BLOCK species_gamma
   radsectesla
   H          267522128.0    
%ENDBLOCK species_gamma

%BLOCK species_pot
   H       1|0.6|13|15|17|10(qc=8)
%ENDBLOCK species_pot

SYMMETRY_TOL :     0.001000

%BLOCK symmetry_ops
# Symm. op. 1       E
          1.000000000000000       0.000000000000000       0.000000000000000
          0.000000000000000       1.000000000000000       0.000000000000000
          0.000000000000000       0.000000000000000       1.000000000000000
          0.000000000000000       0.000000000000000       0.000000000000000
%ENDBLOCK symmetry_ops

kpoint_mp_grid :   10  10  10



%BLOCK EXTERNAL_PRESSURE
GPA
150  0   0
    150  0
        150
%ENDBLOCK EXTERNAL_PRESSURE
