# CELL file written 04:33:10 (GMT+1.0) 14th August 2020 from run Cmca-12

%BLOCK lattice_cart
   ANG
       2.90633629438547       0.536397168860926E-11  -0.308550636603720E-11
      0.100256003615436E-10    5.39251170000371      -0.110552114386191E-07
     -0.384619151722518E-11  -0.672739193887512E-08    3.22615067190380    
%ENDBLOCK lattice_cart

%BLOCK positions_frac
   H              0.000000000006454       0.000443752121712       0.117496973948274
   H              0.000000000007448       0.134147041696770       0.457047131359590
   H              0.000000000002899       0.250446454146331       0.330139807545325
   H              0.499999999990778       0.250446457194270       0.169860198796552
   H              0.500000000012956       0.134147055363250       0.042952876803924
   H              0.499999999990446       0.000443747307864       0.382503036205325
   H              0.499999999990851       0.249553538417752       0.669860184560095
   H              0.500000000012052       0.365852945463474       0.542952886036583
   H              0.499999999976945       0.499556254274422       0.882503012186069
   H              0.499999999989542       0.749553548890330       0.830139812994940
   H              0.500000000008084       0.865852958662266       0.957047125796812
   H              0.500000000017654       0.999556247086866       0.617496942334338
   H              0.500000000011699       0.750446452480330       0.330139815186240
   H              0.499999999990117       0.634147043146469       0.457047136459937
   H              0.500000000005250       0.500443749435639       0.117496975184938
   H              0.000000000016975       0.750446474094774       0.169860211428904
   H             -0.000000000018812       0.634147053414833       0.042952881650096
   H              0.000000000003008       0.500443744687076       0.382503058639515
   H             -0.000000000016499       0.749553523005162       0.669860210852865
   H              0.000000000015582       0.865852957349429       0.542952879295357
   H             -0.000000000007368       0.999556252061688       0.882503005704408
   H              0.000000000017438       0.249553543273067       0.830139803256439
   H             -0.000000000022621       0.365852959034715       0.957047116181108
   H             -0.000000000000882       0.499556247391510       0.617496917592363
%ENDBLOCK positions_frac

FIX_COM : true

%BLOCK species_mass
   AMU
   H          1.007825032    
%ENDBLOCK species_mass

%BLOCK species_gamma
   radsectesla
   H          267522128.0    
%ENDBLOCK species_gamma

%BLOCK species_pot
   H       1|0.6|13|15|17|10(qc=8)
%ENDBLOCK species_pot

SYMMETRY_TOL :     0.001000

%BLOCK symmetry_ops
# Symm. op. 1       E
          1.000000000000000       0.000000000000000       0.000000000000000
          0.000000000000000       1.000000000000000       0.000000000000000
          0.000000000000000       0.000000000000000       1.000000000000000
          0.000000000000000       0.000000000000000       0.000000000000000
%ENDBLOCK symmetry_ops

kpoint_mp_grid :   10  10  10



%BLOCK EXTERNAL_PRESSURE
GPA
090  0   0
    090  0
        090
%ENDBLOCK EXTERNAL_PRESSURE
