# CELL file written 20:39:32 (GMT+1.0) 13th August 2020 from run Cmca-12

%BLOCK lattice_cart
   ANG
       2.55946542470784       0.202523570075856E-12  -0.132329018549796E-11
      0.354491469199575E-12    4.75582974978326       0.314483771977630E-08
     -0.183986761777922E-11   0.191075934135619E-08    2.86649340952729    
%ENDBLOCK lattice_cart

%BLOCK positions_frac
   H             -0.000000000011835       0.003911705958368       0.134698345770898
   H             -0.000000000004023       0.131908913362553       0.455339864822355
   H              0.000000000018795       0.267114238981634       0.316651110453033
   H              0.500000000031112       0.267114235660773       0.183348882021907
   H              0.499999999986396       0.131908920008721       0.044660124636235
   H              0.499999999985045       0.003911710694811       0.365301660069547
   H              0.500000000037504       0.232885762596123       0.683348888842003
   H              0.499999999971164       0.368091082910917       0.544660140566328
   H              0.499999999992115       0.496088292788249       0.865301655100956
   H              0.499999999992353       0.732885765775368       0.816651118603280
   H              0.499999999995688       0.868091078967066       0.955339869729885
   H              0.499999999994131       0.996088288676864       0.634698341936959
   H              0.500000000004490       0.767114237860802       0.316651110892934
   H              0.500000000001929       0.631908916540320       0.455339863915208
   H              0.500000000011364       0.503911706560611       0.134698344965649
   H             -0.000000000010020       0.767114237201889       0.183348883945502
   H              0.000000000018960       0.631908919355766       0.044660123980379
   H              0.000000000003347       0.503911711735983       0.365301654443359
   H             -0.000000000022649       0.732885762343658       0.683348889405051
   H              0.000000000009925       0.868091085779909       0.544660138955028
   H              0.000000000004800       0.996088294026044       0.865301651596618
   H             -0.000000000015710       0.232885765195224       0.816651116358363
   H              0.000000000015478       0.368091078780343       0.955339871420436
   H             -0.000000000010359       0.496088288238003       0.634698347568087
%ENDBLOCK positions_frac

FIX_COM : true

%BLOCK species_mass
   AMU
   H          1.007825032    
%ENDBLOCK species_mass

%BLOCK species_gamma
   radsectesla
   H          267522128.0    
%ENDBLOCK species_gamma

%BLOCK species_pot
   H       1|0.6|13|15|17|10(qc=8)
%ENDBLOCK species_pot

SYMMETRY_TOL :     0.001000

%BLOCK symmetry_ops
# Symm. op. 1       E
          1.000000000000000       0.000000000000000       0.000000000000000
          0.000000000000000       1.000000000000000       0.000000000000000
          0.000000000000000       0.000000000000000       1.000000000000000
          0.000000000000000       0.000000000000000       0.000000000000000
%ENDBLOCK symmetry_ops

kpoint_mp_grid :   10  10  10



%BLOCK EXTERNAL_PRESSURE
GPA
270  0   0
    270  0
        270
%ENDBLOCK EXTERNAL_PRESSURE
