%BLOCK LATTICE_ABC
     20.00000     20.00000     20.00000
     90.00000     90.00000     90.00000
#FIX
%ENDBLOCK LATTICE_ABC

%BLOCK POSITIONS_FRAC
  Al        0.3144515        0.4543469        0.5590918
  Al        0.4958360        0.4771908        0.3333949
  Al        0.6308885        0.5550773        0.6687432
  Al        0.5430432        0.6857185        0.4858280
  Al        0.5329385        0.4242325        0.6676636
  Al        0.4272374        0.4202998        0.3460125
  Al        0.3884261        0.6454218        0.5968859
  Al        0.5222917        0.5758556        0.3131564
  Al        0.6242263        0.6075021        0.4313820
  Al        0.3892100        0.5581458        0.4452053
  Al        0.4745112        0.3241152        0.4039486
  Al        0.6162895        0.6623459        0.4829317
  Al        0.3316567        0.5295944        0.6389846
  Al        0.6543516        0.4968363        0.6253044
  Al        0.5139634        0.3123051        0.5946107
  Al        0.4423458        0.4553494        0.4519277
  Al        0.5502447        0.4112483        0.4146560
  Al        0.5551935        0.4997335        0.4087891
  Al        0.4638496        0.3861767        0.2887379
  Al        0.4293035        0.4449085        0.5258857
  Al        0.5113977        0.6886830        0.5877993
  Al        0.6787044        0.4714556        0.4949338
  Al        0.3740633        0.5025508        0.5749255
  Al        0.5767643        0.3790714        0.4795422
  Al        0.3568170        0.5820763        0.5141569
  Al        0.4835607        0.5003717        0.5670825
  Al        0.4461743        0.4346454        0.5999509
  Al        0.3589119        0.4525465        0.4973160
  Al        0.5854748        0.3992589        0.6138767
  Al        0.4840500        0.5885558        0.5951701
  Al        0.5681763        0.4877652        0.5589271
  Al        0.4942825        0.4995125        0.2594463
  Al        0.4252993        0.3612154        0.5593799
  Al        0.4663702        0.6015659        0.3717051
  Al        0.5140316        0.5774869        0.4758690
  Al        0.5977933        0.5400889        0.5068876
  Al        0.6325755        0.4156253        0.5149217
  Al        0.5452943        0.5911202        0.5449696
%ENDBLOCK POSITIONS_FRAC

FIX_ALL_CELL    :   TRUE

#MINSEP=1.5
#CLUSTER
#POSAMP=1.0
