# CELL file written 13:31:59 (GMT+1.0) 5th August 2020 from run ./Pbcn

%BLOCK lattice_cart
   ANG
       3.35070138571896      -0.126795635921101E-33    0.00000000000000    
     -0.220713848794822E-33    5.82275538901512        0.00000000000000    
       0.00000000000000        0.00000000000000        5.84608564863947    
%ENDBLOCK lattice_cart

%BLOCK cell_constraints
      1   2   3
      0   0   0
%ENDBLOCK cell_constraints

%BLOCK positions_frac
   H              0.408052452487825       0.122711330974948       0.018286646439092
   H              0.569589161087450       0.204211381477415       0.044708638465541
   H              0.565838251713455       0.549618978499067       0.003176077059434
   H              0.113252717084223       0.169572032042864       0.246941581235641
   H              0.301030848701268       0.359745677749460       0.240234994827027
   H              0.188354067298462       0.472106660994362       0.253349971021650
   H              0.188354067298462       0.527893339005637       0.753349971021650
   H              0.301030848701268       0.640254322250540       0.740234994827026
   H              0.113252717084223       0.830427967957135       0.746941581235642
   H              0.565838251713455       0.450381021500934       0.503176077059434
   H              0.569589161087450       0.795788618522587       0.544708638465542
   H              0.408052452487825       0.877288669025052       0.518286646439093
   H              0.311645932701538       0.972106660994363       0.253349971021650
   H              0.198969151298733       0.859745677749459       0.240234994827027
   H              0.386747282915776       0.669572032042865       0.246941581235641
   H             -0.065838251713455       0.049618978499068       0.003176077059434
   H             -0.069589161087448       0.704211381477413       0.044708638465541
   H              0.091947547512174       0.622711330974948       0.018286646439092
   H              0.688354067298462       0.972106660994363       0.246650028978350
   H              0.801030848701269       0.859745677749459       0.259765005172973
   H              0.613252717084223       0.669572032042865       0.253058418764359
   H              1.065838251713456       0.049618978499068       0.496823922940566
   H              1.069589161087449       0.704211381477413       0.455291361534459
   H              0.908052452487827       0.622711330974948       0.481713353560909
   H              0.811645932701539       0.527893339005637       0.746650028978350
   H              0.698969151298731       0.640254322250540       0.759765005172974
   H              0.886747282915777       0.830427967957135       0.753058418764358
   H              0.434161748286545       0.450381021500934      -0.003176077059434
   H              0.430410838912550       0.795788618522587       0.955291361534458
   H              0.591947547512173       0.877288669025052       0.981713353560907
   H              0.811645932701539       0.472106660994362       0.246650028978350
   H              0.698969151298731       0.359745677749460       0.259765005172973
   H              0.886747282915777       0.169572032042864       0.253058418764359
   H              0.434161748286545       0.549618978499067       0.496823922940566
   H              0.430410838912550       0.204211381477415       0.455291361534459
   H              0.591947547512173       0.122711330974948       0.481713353560909
   H              0.688354067298462       0.027893339005637       0.746650028978350
   H              0.801030848701269       0.140254322250540       0.759765005172974
   H              0.613252717084223       0.330427967957135       0.753058418764358
   H              0.065838251713455      -0.049618978499068      -0.003176077059434
   H              1.069589161087449       0.295788618522585       0.955291361534458
   H              0.908052452487827       0.377288669025054       0.981713353560907
   H              0.311645932701538       0.027893339005637       0.753349971021650
   H              0.198969151298733       0.140254322250540       0.740234994827026
   H              0.386747282915776       0.330427967957135       0.746941581235642
   H              0.934161748286545      -0.049618978499068       0.503176077059434
   H             -0.069589161087448       0.295788618522585       0.544708638465542
   H              0.091947547512174       0.377288669025054       0.518286646439093
%ENDBLOCK positions_frac

FIX_COM : true

%BLOCK species_mass
   AMU
   H          1.007825032    
%ENDBLOCK species_mass

%BLOCK species_gamma
   radsectesla
   H          267522128.0    
%ENDBLOCK species_gamma

%BLOCK species_pot
   H       0|0.7|2|6|8|10L(qc=10)
%ENDBLOCK species_pot

SYMMETRY_TOL :     0.001000

%BLOCK symmetry_ops
# Symm. op. 1       E
          1.000000000000000       0.000000000000000       0.000000000000000
          0.000000000000000       1.000000000000000       0.000000000000000
          0.000000000000000       0.000000000000000       1.000000000000000
          0.000000000000000       0.000000000000000       0.000000000000000
# Symm. op. 2       I
         -1.000000000000000       0.000000000000000       0.000000000000000
          0.000000000000000      -1.000000000000000       0.000000000000000
          0.000000000000000       0.000000000000000      -1.000000000000000
         -0.000000000000000      -0.000000000000000       0.000000000000000
# Symm. op. 3     2_1
         -1.000000000000000       0.000000000000000       0.000000000000000
          0.000000000000000      -1.000000000000000       0.000000000000000
          0.000000000000000       0.000000000000000       1.000000000000000
          0.500000000000000       0.500000000000000       0.500000000000000
# Symm. op. 4       n
          1.000000000000000       0.000000000000000       0.000000000000000
          0.000000000000000       1.000000000000000       0.000000000000000
          0.000000000000000       0.000000000000000      -1.000000000000000
          0.500000000000000       0.500000000000000       0.500000000000000
# Symm. op. 5     2_1
          1.000000000000000       0.000000000000000       0.000000000000000
          0.000000000000000      -1.000000000000000       0.000000000000000
          0.000000000000000       0.000000000000000      -1.000000000000000
          0.500000000000000       0.500000000000000       0.000000000000000
# Symm. op. 6       b
         -1.000000000000000       0.000000000000000       0.000000000000000
          0.000000000000000       1.000000000000000       0.000000000000000
          0.000000000000000       0.000000000000000       1.000000000000000
          0.500000000000000       0.500000000000000       0.000000000000000
# Symm. op. 7       2
         -1.000000000000000       0.000000000000000       0.000000000000000
          0.000000000000000       1.000000000000000       0.000000000000000
          0.000000000000000       0.000000000000000      -1.000000000000000
          0.000000000000000       0.000000000000000       0.500000000000000
# Symm. op. 8       c
          1.000000000000000       0.000000000000000       0.000000000000000
          0.000000000000000      -1.000000000000000       0.000000000000000
          0.000000000000000       0.000000000000000       1.000000000000000
          0.000000000000000      -0.000000000000000       0.500000000000000
%ENDBLOCK symmetry_ops

kpoint_mp_grid :    5  10   5

phonon_kpoint_mp_grid :    8   6   4

%BLOCK external_pressure
   GPA
        60.00000000      0.00000000      0.00000000
        60.00000000      0.00000000
        60.00000000
%ENDBLOCK external_pressure

