# CELL file written 10:07:44 (GMT+1.0) 14th August 2020 from run Cmca-12

%BLOCK lattice_cart
   ANG
       3.19229788776391      -0.171335887892434E-11   0.755280341616479E-11
     -0.352928344110989E-11    5.97163223130809       0.290222731249682E-08
      0.773968979676410E-11   0.171543580237359E-08    3.49448556277361    
%ENDBLOCK lattice_cart

%BLOCK positions_frac
   H             -0.000000000030281       0.006309704599607       0.106399807043751
   H              0.000000000017941       0.134976221311707       0.467052895246428
   H             -0.000000000027867       0.237743451741483       0.347291061614219
   H              0.499999999972622       0.237743462700398       0.152708921022645
   H              0.500000000023215       0.134976212302386       0.032947065710732
   H              0.499999999988168       0.006309711477216       0.393600200513163
   H              0.499999999994663       0.262256533365188       0.652708971762474
   H              0.499999999995236       0.365023794176069       0.532947097641852
   H              0.500000000021915       0.493690288504918       0.893600197295327
   H              0.500000000017476       0.762256549459247       0.847291077072477
   H              0.499999999987480       0.865023811858860       0.967052984371620
   H              0.500000000023969       0.993690270542918       0.606399784097028
   H              0.500000000019592       0.737743444801032       0.347291054596458
   H              0.499999999979736       0.634976201014666       0.467052906403181
   H              0.499999999976184       0.506309732460010       0.106399769900236
   H              0.000000000003950       0.737743435130994       0.152708952424176
   H             -0.000000000020370       0.634976212889412       0.032947107243408
   H             -0.000000000026446       0.506309704899225       0.393600182345647
   H              0.000000000008435       0.762256539372521       0.652708955712122
   H              0.000000000008487       0.865023797418141       0.532947074538540
   H              0.000000000045011       0.993690304476210       0.893600203480191
   H             -0.000000000033802       0.262256538258422       0.847291029890651
   H              0.000000000039847       0.365023794207980       0.967052894151262
   H              0.000000000014833       0.493690283031386       0.606399805922407
%ENDBLOCK positions_frac

FIX_COM : true

%BLOCK species_mass
   AMU
   H          1.007825032    
%ENDBLOCK species_mass

%BLOCK species_gamma
   radsectesla
   H          267522128.0    
%ENDBLOCK species_gamma

%BLOCK species_pot
   H       1|0.6|13|15|17|10(qc=8)
%ENDBLOCK species_pot

SYMMETRY_TOL :     0.001000

%BLOCK symmetry_ops
# Symm. op. 1       E
          1.000000000000000       0.000000000000000       0.000000000000000
          0.000000000000000       1.000000000000000       0.000000000000000
          0.000000000000000       0.000000000000000       1.000000000000000
          0.000000000000000       0.000000000000000       0.000000000000000
%ENDBLOCK symmetry_ops

kpoint_mp_grid :   10  10  10


