|300,30,30|
# CELL file written 10:35:55 (GMT+1.0) 3rd July 2020 from run Cmca-12

%BLOCK lattice_cart
   ANG
      2.5550   0.0000000   0.0000000 
      0.0000000   4.7480   0.0000000 
      0.0000000   0.0000000   2.8710 
%ENDBLOCK lattice_cart

%BLOCK positions_frac
   H       0.0000000   0.0036000   0.1358000
   H       0.0000000   0.1317000   0.4527000
   H       0.0000000   0.2689000   0.3163000
   H       0.5000000   0.2689000   0.1837000
   H       0.5000000   0.1317000   0.0473000
   H       0.5000000   0.0036000   0.3642000
   H       0.5000000   0.2311000   0.6837000
   H       0.5000000   0.3683000   0.5473000
   H       0.5000000   0.4964000   0.8642000
   H       0.5000000   0.7311000   0.8163000
   H       0.5000000   0.8683000   0.9527000
   H       0.5000000   0.9964000   0.6358000
   H       0.5000000   0.7689000   0.3163000
   H       0.5000000   0.6317000   0.4527000
   H       0.5000000   0.5036000   0.1358000
   H       0.0000000   0.7689000   0.1837000
   H       0.0000000   0.6317000   0.0473000
   H       0.0000000   0.5036000   0.3642000
   H       0.0000000   0.7311000   0.6837000
   H       0.0000000   0.8683000   0.5473000
   H       0.0000000   0.9964000   0.8642000
   H       0.0000000   0.2311000   0.8163000
   H       0.0000000   0.3683000   0.9527000
   H       0.0000000   0.4964000   0.6358000
%ENDBLOCK positions_frac

FIX_COM : true

%BLOCK species_mass
   AMU
   H          1.007825032    
%ENDBLOCK species_mass

SYMMETRY_TOL :     0.001000

kpoint_mp_grid :    10   10   10

