%BLOCK LATTICE_CART
                 0            2.02475             2.02475
           2.02475                  0             2.02475
           2.02475            2.02475                   0
%ENDBLOCK LATTICE_CART

%BLOCK POSITIONS_ABS
Al                  0              0                   0
%ENDBLOCK POSITIONS_ABS

kpoint_mp_grid 12 12 12

%block bs_kpoint_path 
0.5 0.25 0.75    ! W
0.5 0.5 0.5      ! L
0.0 0.0  0.0     ! Gamma
0.5 0.0 0.5      ! X
0.5 0.25 0.75    ! W
0.375 0.375 0.75 ! K
%endblock bs_kpoint_path 

symmetry_generate