# CELL file written 18:59:23 (GMT+1.0) 11th August 2020 from run C2c

%BLOCK lattice_cart
   ANG
       5.57191775866191        0.00000000000000      -0.323270683087082E-02
       0.00000000000000        3.18938021475766        0.00000000000000    
      -3.70493897359368        0.00000000000000        2.87263271062448    
%ENDBLOCK lattice_cart

%BLOCK cell_constraints
      1   2   3
      0   5   0
%ENDBLOCK cell_constraints

%BLOCK positions_frac
   H              0.258074674310144      -0.088928935133503       0.257735905717182
   H              0.347656579012627       0.303106780589887       0.224126214636384
   H              0.500000000000000       0.100060211236803       0.750000000000000
   H              0.500000000000000       0.331518661372444       0.750000000000000
   H              0.741925325689857      -0.088928935133503       0.242264094282818
   H              0.652343420987373       0.303106780589887       0.275873785363616
   H              0.758074674310143       0.411071064866497       0.257735905717182
   H              0.847656579012627       0.803106780589888       0.224126214636384
   H             -0.000000000000000       0.600060211236802       0.750000000000000
   H              0.000000000000000       0.831518661372444       0.750000000000000
   H              0.241925325689857       0.411071064866497       0.242264094282818
   H              0.152343420987373       0.803106780589888       0.275873785363616
   H              0.241925325689857       0.588928935133505       0.742264094282818
   H              0.152343420987373       0.196893219410113       0.775873785363617
   H             -0.000000000000000       0.399939788763198       0.250000000000000
   H             -0.000000000000000       0.168481338627556       0.250000000000000
   H              0.758074674310143       0.588928935133505       0.757735905717182
   H              0.847656579012627       0.196893219410113       0.724126214636383
   H              0.741925325689857       1.088928935133505       0.742264094282818
   H              0.652343420987373       0.696893219410112       0.775873785363617
   H              0.500000000000000       0.899939788763198       0.250000000000000
   H              0.500000000000000       0.668481338627556       0.250000000000000
   H              0.258074674310144       1.088928935133505       0.757735905717182
   H              0.347656579012627       0.696893219410112       0.724126214636383
%ENDBLOCK positions_frac

FIX_COM : true

%BLOCK species_gamma
   radsectesla
   H          267522128.0    
%ENDBLOCK species_gamma

%BLOCK species_pot
   H       0|0.7|2|6|8|10L(qc=10)
%ENDBLOCK species_pot

SYMMETRY_TOL :     0.001000

%BLOCK symmetry_ops
# Symm. op. 1       E
          1.000000000000000       0.000000000000000       0.000000000000000
          0.000000000000000       1.000000000000000       0.000000000000000
         -0.000000000000000       0.000000000000000       1.000000000000000
          0.000000000000000       0.000000000000000       0.000000000000000
# Symm. op. 2       I
         -1.000000000000000       0.000000000000000       0.000000000000000
          0.000000000000000      -1.000000000000000       0.000000000000000
          0.000000000000000       0.000000000000000      -1.000000000000000
         -0.000000000000000      -0.000000000000000      -0.000000000000000
# Symm. op. 3     2_1
         -1.000000000000000       0.000000000000000       0.000000000000000
          0.000000000000000       1.000000000000000       0.000000000000000
          0.000000000000000       0.000000000000000      -1.000000000000000
          0.500000000000000       0.500000000000000       0.500000000000000
# Symm. op. 4       n
          1.000000000000000       0.000000000000000       0.000000000000000
          0.000000000000000      -1.000000000000000       0.000000000000000
         -0.000000000000000       0.000000000000000       1.000000000000000
          0.500000000000000       0.500000000000000       0.500000000000000
# Symm. op. 5       E
          1.000000000000000       0.000000000000000       0.000000000000000
          0.000000000000000       1.000000000000000       0.000000000000000
         -0.000000000000000       0.000000000000000       1.000000000000000
          0.500000000000000       0.500000000000000       0.000000000000000
# Symm. op. 6       I
         -1.000000000000000       0.000000000000000       0.000000000000000
          0.000000000000000      -1.000000000000000       0.000000000000000
          0.000000000000000       0.000000000000000      -1.000000000000000
          0.500000000000000       0.500000000000000      -0.000000000000000
# Symm. op. 7       2
         -1.000000000000000       0.000000000000000       0.000000000000000
          0.000000000000000       1.000000000000000       0.000000000000000
          0.000000000000000       0.000000000000000      -1.000000000000000
         -0.000000000000000       0.000000000000000       0.500000000000000
# Symm. op. 8       c
          1.000000000000000       0.000000000000000       0.000000000000000
          0.000000000000000      -1.000000000000000       0.000000000000000
         -0.000000000000000       0.000000000000000       1.000000000000000
          0.000000000000000      -0.000000000000000       0.500000000000000
%ENDBLOCK symmetry_ops

kpoint_mp_grid :   10  10  10

%BLOCK external_pressure
   GPA
       120.00000000      0.00000000      0.00000000
       120.00000000      0.00000000
       120.00000000
%ENDBLOCK external_pressure

