# CELL file written 18:26:12 (GMT+1.0) 11th August 2020 from run C2c

%BLOCK lattice_cart
   ANG
       5.29376301062022        0.00000000000000      -0.272197743533424E-03
       0.00000000000000        3.01879407205692        0.00000000000000    
      -3.51855375226391        0.00000000000000        2.70906248404831    
%ENDBLOCK lattice_cart

%BLOCK cell_constraints
      1   2   3
      0   5   0
%ENDBLOCK cell_constraints

%BLOCK positions_frac
   H              0.265338558903639      -0.079704689362451       0.256228624835479
   H              0.343299428340614       0.303903634687215       0.220628469525471
   H              0.500000000000000       0.101984777173612       0.750000000000000
   H              0.500000000000000       0.347711310646135       0.750000000000000
   H              0.734661441096361      -0.079704689362451       0.243771375164521
   H              0.656700571659386       0.303903634687215       0.279371530474529
   H              0.765338558903639       0.420295310637549       0.256228624835479
   H              0.843299428340614       0.803903634687216       0.220628469525471
   H             -0.000000000000000       0.601984777173611       0.750000000000000
   H              0.000000000000000       0.847711310646135       0.750000000000000
   H              0.234661441096361       0.420295310637549       0.243771375164521
   H              0.156700571659386       0.803903634687216       0.279371530474529
   H              0.234661441096361       0.579704689362453       0.743771375164521
   H              0.156700571659386       0.196096365312785       0.779371530474529
   H              0.000000000000000       0.398015222826388       0.250000000000000
   H             -0.000000000000000       0.152288689353865       0.250000000000000
   H              0.765338558903639       0.579704689362453       0.756228624835479
   H              0.843299428340614       0.196096365312785       0.720628469525471
   H              0.734661441096361       1.079704689362452       0.743771375164521
   H              0.656700571659386       0.696096365312784       0.779371530474529
   H              0.500000000000000       0.898015222826389       0.250000000000000
   H              0.500000000000000       0.652288689353865       0.250000000000000
   H              0.265338558903639       1.079704689362452       0.756228624835479
   H              0.343299428340614       0.696096365312784       0.720628469525471
%ENDBLOCK positions_frac

FIX_COM : true

%BLOCK species_gamma
   radsectesla
   H          267522128.0    
%ENDBLOCK species_gamma

%BLOCK species_pot
   H       0|0.7|2|6|8|10L(qc=10)
%ENDBLOCK species_pot

SYMMETRY_TOL :     0.001000

%BLOCK symmetry_ops
# Symm. op. 1       E
          1.000000000000000       0.000000000000000       0.000000000000000
          0.000000000000000       1.000000000000000       0.000000000000000
         -0.000000000000000       0.000000000000000       1.000000000000000
          0.000000000000000       0.000000000000000       0.000000000000000
# Symm. op. 2       I
         -1.000000000000000       0.000000000000000       0.000000000000000
          0.000000000000000      -1.000000000000000       0.000000000000000
          0.000000000000000       0.000000000000000      -1.000000000000000
         -0.000000000000000      -0.000000000000000      -0.000000000000000
# Symm. op. 3     2_1
         -1.000000000000000       0.000000000000000       0.000000000000000
          0.000000000000000       1.000000000000000       0.000000000000000
          0.000000000000000       0.000000000000000      -1.000000000000000
          0.500000000000000       0.500000000000000       0.500000000000000
# Symm. op. 4       n
          1.000000000000000       0.000000000000000       0.000000000000000
          0.000000000000000      -1.000000000000000       0.000000000000000
         -0.000000000000000       0.000000000000000       1.000000000000000
          0.500000000000000       0.500000000000000       0.500000000000000
# Symm. op. 5       E
          1.000000000000000       0.000000000000000       0.000000000000000
          0.000000000000000       1.000000000000000       0.000000000000000
         -0.000000000000000       0.000000000000000       1.000000000000000
          0.500000000000000       0.500000000000000       0.000000000000000
# Symm. op. 6       I
         -1.000000000000000       0.000000000000000       0.000000000000000
          0.000000000000000      -1.000000000000000       0.000000000000000
          0.000000000000000       0.000000000000000      -1.000000000000000
          0.500000000000000       0.500000000000000      -0.000000000000000
# Symm. op. 7       2
         -1.000000000000000       0.000000000000000       0.000000000000000
          0.000000000000000       1.000000000000000       0.000000000000000
          0.000000000000000       0.000000000000000      -1.000000000000000
         -0.000000000000000       0.000000000000000       0.500000000000000
# Symm. op. 8       c
          1.000000000000000       0.000000000000000       0.000000000000000
          0.000000000000000      -1.000000000000000       0.000000000000000
         -0.000000000000000       0.000000000000000       1.000000000000000
          0.000000000000000      -0.000000000000000       0.500000000000000
%ENDBLOCK symmetry_ops

kpoint_mp_grid :   10  10  10

%BLOCK external_pressure
   GPA
       180.00000000      0.00000000      0.00000000
       180.00000000      0.00000000
       180.00000000
%ENDBLOCK external_pressure

