# CELL file written 11:53:26 (GMT+1.0) 24th July 2020 from run P21c

%BLOCK lattice_cart
   ANG
       9.61771995029639        0.00000000000000       0.152530899827612E-02
       0.00000000000000        2.01494782388044        0.00000000000000    
      -6.41326126759681        0.00000000000000        3.47468735926213    
%ENDBLOCK lattice_cart

%BLOCK cell_constraints
      1   2   3
      0   5   0
%ENDBLOCK cell_constraints

%BLOCK positions_frac
   H              0.833947536463966       0.659165293228349       0.101314106753581
   H              0.166052463536034       0.340834706771650       0.898685893246418
   H              0.833947536463966       0.840834706771651       0.601314106753581
   H              0.166052463536034       0.159165293228350       0.398685893246419
   H              0.883670378376406       0.406012645769480       0.224479857607510
   H              0.116329621623594       0.593987354230520       0.775520142392491
   H              0.883670378376406       0.093987354230519       0.724479857607509
   H              0.116329621623594       0.906012645769480       0.275520142392490
   H              0.861064393523889       0.122743146642148       0.417781755770586
   H              0.138935606476111       0.877256853357852       0.582218244229414
   H              0.861064393523889       0.377256853357852       0.917781755770586
   H              0.138935606476111       0.622743146642148       0.082218244229414
   H              0.748113688094422       0.907922485190724       0.246271373806614
   H              0.251886311905577       0.092077514809275       0.753728626193387
   H              0.748113688094422       0.592077514809276       0.746271373806613
   H              0.251886311905577       0.407922485190725       0.253728626193386
   H              0.574603495120200       0.389160383939777       0.194071264559531
   H              0.425396504879799       0.610839616060223       0.805928735440469
   H              0.574603495120200       0.110839616060223       0.694071264559531
   H              0.425396504879799       0.889160383939777       0.305928735440469
   H              0.477389096132337       0.602141696598953       0.135900795013522
   H              0.522610903867663       0.397858303401045       0.864099204986478
   H              0.477389096132337       0.897858303401046       0.635900795013522
   H              0.522610903867663       0.102141696598955       0.364099204986478
%ENDBLOCK positions_frac

FIX_COM : true

%BLOCK species_gamma
   radsectesla
   H          267522128.0    
%ENDBLOCK species_gamma

%BLOCK species_pot
   H       0|0.7|2|6|8|10L(qc=10)
%ENDBLOCK species_pot

SYMMETRY_TOL :     0.001000

%BLOCK symmetry_ops
# Symm. op. 1       E
          1.000000000000000       0.000000000000000       0.000000000000000
          0.000000000000000       1.000000000000000       0.000000000000000
          0.000000000000000       0.000000000000000       1.000000000000000
          0.000000000000000       0.000000000000000       0.000000000000000
# Symm. op. 2       I
         -1.000000000000000       0.000000000000000       0.000000000000000
          0.000000000000000      -1.000000000000000       0.000000000000000
         -0.000000000000000       0.000000000000000      -1.000000000000000
          0.000000000000000       0.000000000000000      -0.000000000000000
# Symm. op. 3     2_1
         -1.000000000000000       0.000000000000000       0.000000000000000
          0.000000000000000       1.000000000000000       0.000000000000000
         -0.000000000000000       0.000000000000000      -1.000000000000000
          0.000000000000000       0.500000000000000       0.500000000000000
# Symm. op. 4       c
          1.000000000000000       0.000000000000000       0.000000000000000
          0.000000000000000      -1.000000000000000       0.000000000000000
          0.000000000000000       0.000000000000000       1.000000000000000
          0.000000000000000       0.500000000000000       0.500000000000000
%ENDBLOCK symmetry_ops

kpoint_mp_grid :    8  13  11

phonon_kpoint_mp_grid :    1   1   1


%BLOCK EXTERNAL_PRESSURE
GPA
050  0   0
    050  0
        050
%ENDBLOCK EXTERNAL_PRESSURE
