# CELL file written 06:51:56 (GMT+1.0) 23rd July 2020 from run P21c

%BLOCK lattice_cart
   ANG
       9.24797494753319        0.00000000000000       0.211153464178250E-02
       0.00000000000000        1.94573559203670        0.00000000000000    
      -6.16647826081896        0.00000000000000        3.35617076577291    
%ENDBLOCK lattice_cart

%BLOCK cell_constraints
      1   2   3
      0   5   0
%ENDBLOCK cell_constraints

%BLOCK positions_frac
   H              0.831030426082871       0.670512812860507       0.097257332724790
   H              0.168969573917129       0.329487187139492       0.902742667275209
   H              0.831030426082871       0.829487187139493       0.597257332724790
   H              0.168969573917129       0.170512812860508       0.402742667275210
   H              0.885681475573520       0.405807876489852       0.226456878533077
   H              0.114318524426480       0.594192123510147       0.773543121466924
   H              0.885681475573520       0.094192123510147       0.726456878533076
   H              0.114318524426480       0.905807876489853       0.273543121466923
   H              0.863091334251361       0.129923872881976       0.420242803505270
   H              0.136908665748639       0.870076127118024       0.579757196494730
   H              0.863091334251361       0.370076127118024       0.920242803505270
   H              0.136908665748639       0.629923872881976       0.079757196494730
   H              0.746228964113750       0.906200868606446       0.243787030272016
   H              0.253771035886250       0.093799131393553       0.756212969727984
   H              0.746228964113750       0.593799131393554       0.743787030272016
   H              0.253771035886250       0.406200868606447       0.256212969727984
   H              0.575838552961716       0.382930101839115       0.195290505223443
   H              0.424161447038283       0.617069898160885       0.804709494776557
   H              0.575838552961716       0.117069898160885       0.695290505223443
   H              0.424161447038283       0.882930101839115       0.304709494776557
   H              0.474713087754237       0.607854441318068       0.132862965599066
   H              0.525286912245764       0.392145558681930       0.867137034400934
   H              0.474713087754237       0.892145558681931       0.632862965599066
   H              0.525286912245764       0.107854441318070       0.367137034400934
%ENDBLOCK positions_frac

FIX_COM : true

%BLOCK species_gamma
   radsectesla
   H          267522128.0    
%ENDBLOCK species_gamma

%BLOCK species_pot
   H       0|0.7|2|6|8|10L(qc=10)
%ENDBLOCK species_pot

SYMMETRY_TOL :     0.001000

%BLOCK symmetry_ops
# Symm. op. 1       E
          1.000000000000000       0.000000000000000       0.000000000000000
          0.000000000000000       1.000000000000000       0.000000000000000
          0.000000000000000       0.000000000000000       1.000000000000000
          0.000000000000000       0.000000000000000       0.000000000000000
# Symm. op. 2       I
         -1.000000000000000       0.000000000000000       0.000000000000000
          0.000000000000000      -1.000000000000000       0.000000000000000
         -0.000000000000000       0.000000000000000      -1.000000000000000
          0.000000000000000       0.000000000000000      -0.000000000000000
# Symm. op. 3     2_1
         -1.000000000000000       0.000000000000000       0.000000000000000
          0.000000000000000       1.000000000000000       0.000000000000000
         -0.000000000000000       0.000000000000000      -1.000000000000000
          0.000000000000000       0.500000000000000       0.500000000000000
# Symm. op. 4       c
          1.000000000000000       0.000000000000000       0.000000000000000
          0.000000000000000      -1.000000000000000       0.000000000000000
          0.000000000000000       0.000000000000000       1.000000000000000
          0.000000000000000       0.500000000000000       0.500000000000000
%ENDBLOCK symmetry_ops

kpoint_mp_grid :    8  13  11

phonon_kpoint_mp_grid :    1   1   1



%BLOCK EXTERNAL_PRESSURE
GPA
070  0   0
    070  0
        070
%ENDBLOCK EXTERNAL_PRESSURE
