# CELL file written 21:22:45 (GMT+1.0) 21st July 2020 from run C2c

%BLOCK lattice_cart
   ANG
       6.08627449182964        0.00000000000000      -0.128770118584375E-01
       0.00000000000000        3.18156315165824        0.00000000000000    
      -4.05082656564508        0.00000000000000        3.34901223213340    
%ENDBLOCK lattice_cart

%BLOCK cell_constraints
      1   2   3
      0   5   0
%ENDBLOCK cell_constraints

%BLOCK positions_frac
   H              0.166666656067738      -0.130127887183664       0.249999975147425
   H              0.333333348306786       0.130127890375354       0.250000024766574
   H              0.500000000000000       0.130127897717307       0.750000000000000
   H              0.500000000000000       0.369872106814653       0.750000000000000
   H              0.833333343932261      -0.130127887183664       0.250000024852574
   H              0.666666651693214       0.130127890375354       0.249999975233426
   H              0.666666656067739       0.369872112816338       0.249999975147425
   H              0.833333348306786       0.630127890375355       0.250000024766574
   H              0.000000000000000       0.630127897717308       0.750000000000000
   H              0.000000000000000       0.869872106814653       0.750000000000000
   H              0.333333343932261       0.369872112816338       0.250000024852574
   H              0.166666651693214       0.630127890375355       0.249999975233426
   H              0.333333343932261       0.630127887183664       0.750000024852574
   H              0.166666651693214       0.369872109624646       0.749999975233425
   H              0.000000000000000       0.369872102282693       0.250000000000000
   H             -0.000000000000000       0.130127893185347       0.250000000000000
   H              0.666666656067739       0.630127887183664       0.749999975147426
   H              0.833333348306786       0.369872109624646       0.750000024766575
   H              0.833333343932261       1.130127887183665       0.750000024852574
   H              0.666666651693214       0.869872109624645       0.749999975233425
   H              0.500000000000000       0.869872102282692       0.250000000000000
   H              0.500000000000000       0.630127893185347       0.250000000000000
   H              0.166666656067738       1.130127887183665       0.749999975147426
   H              0.333333348306786       0.869872109624645       0.750000024766575
%ENDBLOCK positions_frac

FIX_COM : true

%BLOCK species_gamma
   radsectesla
   H          267522128.0    
%ENDBLOCK species_gamma

%BLOCK species_pot
   H       0|0.7|2|6|8|10L(qc=10)
%ENDBLOCK species_pot

SYMMETRY_TOL :     0.001000

%BLOCK symmetry_ops
# Symm. op. 1       E
          1.000000000000000       0.000000000000000       0.000000000000000
          0.000000000000000       1.000000000000000       0.000000000000000
         -0.000000000000000       0.000000000000000       1.000000000000000
          0.000000000000000       0.000000000000000       0.000000000000000
# Symm. op. 2       I
         -1.000000000000000       0.000000000000000       0.000000000000000
          0.000000000000000      -1.000000000000000       0.000000000000000
          0.000000000000000       0.000000000000000      -1.000000000000000
         -0.000000000000000      -0.000000000000000      -0.000000000000000
# Symm. op. 3     2_1
         -1.000000000000000       0.000000000000000       0.000000000000000
          0.000000000000000       1.000000000000000       0.000000000000000
          0.000000000000000       0.000000000000000      -1.000000000000000
          0.500000000000000       0.500000000000000       0.500000000000000
# Symm. op. 4       n
          1.000000000000000       0.000000000000000       0.000000000000000
          0.000000000000000      -1.000000000000000       0.000000000000000
         -0.000000000000000       0.000000000000000       1.000000000000000
          0.500000000000000       0.500000000000000       0.500000000000000
# Symm. op. 5       E
          1.000000000000000       0.000000000000000       0.000000000000000
          0.000000000000000       1.000000000000000       0.000000000000000
         -0.000000000000000       0.000000000000000       1.000000000000000
          0.500000000000000       0.500000000000000       0.000000000000000
# Symm. op. 6       I
         -1.000000000000000       0.000000000000000       0.000000000000000
          0.000000000000000      -1.000000000000000       0.000000000000000
          0.000000000000000       0.000000000000000      -1.000000000000000
          0.500000000000000       0.500000000000000      -0.000000000000000
# Symm. op. 7       2
         -1.000000000000000       0.000000000000000       0.000000000000000
          0.000000000000000       1.000000000000000       0.000000000000000
          0.000000000000000       0.000000000000000      -1.000000000000000
         -0.000000000000000       0.000000000000000       0.500000000000000
# Symm. op. 8       c
          1.000000000000000       0.000000000000000       0.000000000000000
          0.000000000000000      -1.000000000000000       0.000000000000000
         -0.000000000000000       0.000000000000000       1.000000000000000
          0.000000000000000      -0.000000000000000       0.500000000000000
%ENDBLOCK symmetry_ops

kpoint_mp_grid :    2   2   2

phonon_kpoint_mp_grid :    1   1   1



%BLOCK EXTERNAL_PRESSURE
GPA
030  0   0
    030  0
        030
%ENDBLOCK EXTERNAL_PRESSURE
