%BLOCK LATTICE_ABC
ang
	10	10	10
	90	90	90
%ENDBLOCK LATTICE_ABC

%BLOCK POSITIONS_ABS
ang
N	5.00	5.00	5.00
N	6.15	6.15	6.15
%ENDBLOCK POSITIONS_ABS

KPOINTS_MP_GRID   1   1   1

FIX_COM = TRUE
FIX_ALL_CELL = TRUE
