# CELL file written 19:03:08 (GMT+1.0) 25th July 2020 from run C2c

%BLOCK lattice_cart
   ANG
       5.11403230181311        0.00000000000000      -0.206774882968114E-01
       0.00000000000000        2.78002171557977        0.00000000000000    
      -3.40900947476385        0.00000000000000        2.90581285843076    
%ENDBLOCK lattice_cart

%BLOCK cell_constraints
      1   2   3
      0   5   0
%ENDBLOCK cell_constraints

%BLOCK positions_frac
   H              0.166777986844535      -0.108322687649165       0.250008443757063
   H              0.333444446498571       0.108496984194203       0.250008281555674
   H              0.500000000000000       0.108584016915987       0.750000000000000
   H              0.500000000000000       0.391764510166087       0.750000000000000
   H              0.833222013155463      -0.108322687649165       0.249991556242935
   H              0.666555553501429       0.108496984194203       0.249991718444326
   H              0.666777986844537       0.391677312350836       0.250008443757063
   H              0.833444446498571       0.608496984194204       0.250008281555674
   H              0.000000000000000       0.608584016915987       0.750000000000000
   H              0.000000000000000       0.891764510166088       0.750000000000000
   H              0.333222013155465       0.391677312350836       0.249991556242935
   H              0.166555553501429       0.608496984194204       0.249991718444326
   H              0.333222013155465       0.608322687649165       0.749991556242935
   H              0.166555553501429       0.391503015805797       0.749991718444325
   H              0.000000000000000       0.391415983084013       0.250000000000000
   H              0.000000000000000       0.108235489833913       0.250000000000000
   H              0.666777986844537       0.608322687649165       0.750008443757065
   H              0.833444446498571       0.391503015805797       0.750008281555675
   H              0.833222013155463       1.108322687649167       0.749991556242935
   H              0.666555553501429       0.891503015805796       0.749991718444325
   H              0.500000000000000       0.891415983084013       0.250000000000000
   H              0.500000000000000       0.608235489833912       0.250000000000000
   H              0.166777986844535       1.108322687649167       0.750008443757065
   H              0.333444446498571       0.891503015805796       0.750008281555675
%ENDBLOCK positions_frac

FIX_COM : true

%BLOCK species_gamma
   radsectesla
   H          267522128.0    
%ENDBLOCK species_gamma

%BLOCK species_pot
   H       0|0.7|2|6|8|10L(qc=10)
%ENDBLOCK species_pot

SYMMETRY_TOL :     0.001000

%BLOCK symmetry_ops
# Symm. op. 1       E
          1.000000000000000       0.000000000000000       0.000000000000000
          0.000000000000000       1.000000000000000       0.000000000000000
         -0.000000000000000       0.000000000000000       1.000000000000000
          0.000000000000000       0.000000000000000       0.000000000000000
# Symm. op. 2       I
         -1.000000000000000       0.000000000000000       0.000000000000000
          0.000000000000000      -1.000000000000000       0.000000000000000
          0.000000000000000       0.000000000000000      -1.000000000000000
         -0.000000000000000      -0.000000000000000      -0.000000000000000
# Symm. op. 3     2_1
         -1.000000000000000       0.000000000000000       0.000000000000000
          0.000000000000000       1.000000000000000       0.000000000000000
          0.000000000000000       0.000000000000000      -1.000000000000000
          0.500000000000000       0.500000000000000       0.500000000000000
# Symm. op. 4       n
          1.000000000000000       0.000000000000000       0.000000000000000
          0.000000000000000      -1.000000000000000       0.000000000000000
         -0.000000000000000       0.000000000000000       1.000000000000000
          0.500000000000000       0.500000000000000       0.500000000000000
# Symm. op. 5       E
          1.000000000000000       0.000000000000000       0.000000000000000
          0.000000000000000       1.000000000000000       0.000000000000000
         -0.000000000000000       0.000000000000000       1.000000000000000
          0.500000000000000       0.500000000000000       0.000000000000000
# Symm. op. 6       I
         -1.000000000000000       0.000000000000000       0.000000000000000
          0.000000000000000      -1.000000000000000       0.000000000000000
          0.000000000000000       0.000000000000000      -1.000000000000000
          0.500000000000000       0.500000000000000      -0.000000000000000
# Symm. op. 7       2
         -1.000000000000000       0.000000000000000       0.000000000000000
          0.000000000000000       1.000000000000000       0.000000000000000
          0.000000000000000       0.000000000000000      -1.000000000000000
         -0.000000000000000       0.000000000000000       0.500000000000000
# Symm. op. 8       c
          1.000000000000000       0.000000000000000       0.000000000000000
          0.000000000000000      -1.000000000000000       0.000000000000000
         -0.000000000000000       0.000000000000000       1.000000000000000
          0.000000000000000      -0.000000000000000       0.500000000000000
%ENDBLOCK symmetry_ops

kpoint_mp_grid :    2   2   2

phonon_kpoint_mp_grid :    1   1   1

%BLOCK external_pressure
   GPA
       200.00000000      0.00000000      0.00000000
       200.00000000      0.00000000
       200.00000000
%ENDBLOCK external_pressure

