# CELL file written 17:43:42 (GMT+1.0) 25th July 2020 from run C2c

%BLOCK lattice_cart
   ANG
       4.98336423801152        0.00000000000000      -0.212509663958956E-01
       0.00000000000000        2.72170440754309        0.00000000000000    
      -3.32250905072795        0.00000000000000        2.83730339260679    
%ENDBLOCK lattice_cart

%BLOCK cell_constraints
      1   2   3
      0   5   0
%ENDBLOCK cell_constraints

%BLOCK positions_frac
   H              0.180820524771268      -0.095608435174741       0.251519282862660
   H              0.345944987480078       0.117871686875153       0.250561432325263
   H              0.500000000000000       0.126500020570533       0.750000000000000
   H              0.500000000000000       0.415309414761303       0.750000000000000
   H              0.819179475228730      -0.095608435174741       0.248480717137338
   H              0.654055012519922       0.117871686875153       0.249438567674737
   H              0.680820524771270       0.404391564825261       0.251519282862660
   H              0.845944987480078       0.617871686875154       0.250561432325263
   H              0.000000000000000       0.626500020570533       0.750000000000000
   H              0.000000000000000       0.915309414761303       0.750000000000000
   H              0.319179475228732       0.404391564825261       0.248480717137338
   H              0.154055012519922       0.617871686875154       0.249438567674737
   H              0.319179475228732       0.595608435174741       0.748480717137338
   H              0.154055012519922       0.382128313124847       0.749438567674737
   H              0.000000000000000       0.373499979429467       0.250000000000000
   H              0.000000000000000       0.084690585238697       0.250000000000000
   H              0.680820524771270       0.595608435174741       0.751519282862662
   H              0.845944987480078       0.382128313124847       0.750561432325263
   H              0.819179475228730       1.095608435174741       0.748480717137338
   H              0.654055012519922       0.882128313124846       0.749438567674737
   H              0.500000000000000       0.873499979429467       0.250000000000000
   H              0.500000000000000       0.584690585238697       0.250000000000000
   H              0.180820524771268       1.095608435174741       0.751519282862662
   H              0.345944987480078       0.882128313124846       0.750561432325263
%ENDBLOCK positions_frac

FIX_COM : true

%BLOCK species_gamma
   radsectesla
   H          267522128.0    
%ENDBLOCK species_gamma

%BLOCK species_pot
   H       0|0.7|2|6|8|10L(qc=10)
%ENDBLOCK species_pot

SYMMETRY_TOL :     0.001000

%BLOCK symmetry_ops
# Symm. op. 1       E
          1.000000000000000       0.000000000000000       0.000000000000000
          0.000000000000000       1.000000000000000       0.000000000000000
         -0.000000000000000       0.000000000000000       1.000000000000000
          0.000000000000000       0.000000000000000       0.000000000000000
# Symm. op. 2       I
         -1.000000000000000       0.000000000000000       0.000000000000000
          0.000000000000000      -1.000000000000000       0.000000000000000
          0.000000000000000       0.000000000000000      -1.000000000000000
         -0.000000000000000      -0.000000000000000      -0.000000000000000
# Symm. op. 3     2_1
         -1.000000000000000       0.000000000000000       0.000000000000000
          0.000000000000000       1.000000000000000       0.000000000000000
          0.000000000000000       0.000000000000000      -1.000000000000000
          0.500000000000000       0.500000000000000       0.500000000000000
# Symm. op. 4       n
          1.000000000000000       0.000000000000000       0.000000000000000
          0.000000000000000      -1.000000000000000       0.000000000000000
         -0.000000000000000       0.000000000000000       1.000000000000000
          0.500000000000000       0.500000000000000       0.500000000000000
# Symm. op. 5       E
          1.000000000000000       0.000000000000000       0.000000000000000
          0.000000000000000       1.000000000000000       0.000000000000000
         -0.000000000000000       0.000000000000000       1.000000000000000
          0.500000000000000       0.500000000000000       0.000000000000000
# Symm. op. 6       I
         -1.000000000000000       0.000000000000000       0.000000000000000
          0.000000000000000      -1.000000000000000       0.000000000000000
          0.000000000000000       0.000000000000000      -1.000000000000000
          0.500000000000000       0.500000000000000      -0.000000000000000
# Symm. op. 7       2
         -1.000000000000000       0.000000000000000       0.000000000000000
          0.000000000000000       1.000000000000000       0.000000000000000
          0.000000000000000       0.000000000000000      -1.000000000000000
         -0.000000000000000       0.000000000000000       0.500000000000000
# Symm. op. 8       c
          1.000000000000000       0.000000000000000       0.000000000000000
          0.000000000000000      -1.000000000000000       0.000000000000000
         -0.000000000000000       0.000000000000000       1.000000000000000
          0.000000000000000      -0.000000000000000       0.500000000000000
%ENDBLOCK symmetry_ops

kpoint_mp_grid :    2   2   2

phonon_kpoint_mp_grid :    1   1   1

%BLOCK external_pressure
   GPA
       240.00000000      0.00000000      0.00000000
       240.00000000      0.00000000
       240.00000000
%ENDBLOCK external_pressure

