# CELL file written 17:59:06 (GMT+1.0) 25th July 2020 from run C2c

%BLOCK lattice_cart
   ANG
       5.01379385480400        0.00000000000000      -0.211226641182567E-01
       0.00000000000000        2.73540511401407        0.00000000000000    
      -3.34265526859724        0.00000000000000        2.85342986178291    
%ENDBLOCK lattice_cart

%BLOCK cell_constraints
      1   2   3
      0   5   0
%ENDBLOCK cell_constraints

%BLOCK positions_frac
   H              0.178834266154920      -0.097619336010836       0.251270153043382
   H              0.344299406208823       0.116592148239868       0.250503733237709
   H              0.500000000000000       0.124331494960810       0.750000000000000
   H              0.500000000000000       0.411871940846096       0.750000000000000
   H              0.821165733845078      -0.097619336010836       0.248729846956616
   H              0.655700593791177       0.116592148239868       0.249496266762291
   H              0.678834266154922       0.402380663989165       0.251270153043382
   H              0.844299406208823       0.616592148239869       0.250503733237709
   H              0.000000000000000       0.624331494960810       0.750000000000000
   H              0.000000000000000       0.911871940846096       0.750000000000000
   H              0.321165733845080       0.402380663989165       0.248729846956616
   H              0.155700593791177       0.616592148239869       0.249496266762291
   H              0.321165733845080       0.597619336010836       0.748729846956616
   H              0.155700593791177       0.383407851760132       0.749496266762291
   H              0.000000000000000       0.375668505039190       0.250000000000000
   H              0.000000000000000       0.088128059153904       0.250000000000000
   H              0.678834266154922       0.597619336010836       0.751270153043384
   H              0.844299406208823       0.383407851760132       0.750503733237709
   H              0.821165733845078       1.097619336010837       0.748729846956616
   H              0.655700593791177       0.883407851760131       0.749496266762291
   H              0.500000000000000       0.875668505039190       0.250000000000000
   H              0.500000000000000       0.588128059153904       0.250000000000000
   H              0.178834266154920       1.097619336010837       0.751270153043384
   H              0.344299406208823       0.883407851760131       0.750503733237709
%ENDBLOCK positions_frac

FIX_COM : true

%BLOCK species_gamma
   radsectesla
   H          267522128.0    
%ENDBLOCK species_gamma

%BLOCK species_pot
   H       0|0.7|2|6|8|10L(qc=10)
%ENDBLOCK species_pot

SYMMETRY_TOL :     0.001000

%BLOCK symmetry_ops
# Symm. op. 1       E
          1.000000000000000       0.000000000000000       0.000000000000000
          0.000000000000000       1.000000000000000       0.000000000000000
         -0.000000000000000       0.000000000000000       1.000000000000000
          0.000000000000000       0.000000000000000       0.000000000000000
# Symm. op. 2       I
         -1.000000000000000       0.000000000000000       0.000000000000000
          0.000000000000000      -1.000000000000000       0.000000000000000
          0.000000000000000       0.000000000000000      -1.000000000000000
         -0.000000000000000      -0.000000000000000      -0.000000000000000
# Symm. op. 3     2_1
         -1.000000000000000       0.000000000000000       0.000000000000000
          0.000000000000000       1.000000000000000       0.000000000000000
          0.000000000000000       0.000000000000000      -1.000000000000000
          0.500000000000000       0.500000000000000       0.500000000000000
# Symm. op. 4       n
          1.000000000000000       0.000000000000000       0.000000000000000
          0.000000000000000      -1.000000000000000       0.000000000000000
         -0.000000000000000       0.000000000000000       1.000000000000000
          0.500000000000000       0.500000000000000       0.500000000000000
# Symm. op. 5       E
          1.000000000000000       0.000000000000000       0.000000000000000
          0.000000000000000       1.000000000000000       0.000000000000000
         -0.000000000000000       0.000000000000000       1.000000000000000
          0.500000000000000       0.500000000000000       0.000000000000000
# Symm. op. 6       I
         -1.000000000000000       0.000000000000000       0.000000000000000
          0.000000000000000      -1.000000000000000       0.000000000000000
          0.000000000000000       0.000000000000000      -1.000000000000000
          0.500000000000000       0.500000000000000      -0.000000000000000
# Symm. op. 7       2
         -1.000000000000000       0.000000000000000       0.000000000000000
          0.000000000000000       1.000000000000000       0.000000000000000
          0.000000000000000       0.000000000000000      -1.000000000000000
         -0.000000000000000       0.000000000000000       0.500000000000000
# Symm. op. 8       c
          1.000000000000000       0.000000000000000       0.000000000000000
          0.000000000000000      -1.000000000000000       0.000000000000000
         -0.000000000000000       0.000000000000000       1.000000000000000
          0.000000000000000      -0.000000000000000       0.500000000000000
%ENDBLOCK symmetry_ops

kpoint_mp_grid :    2   2   2

phonon_kpoint_mp_grid :    1   1   1

%BLOCK external_pressure
   GPA
       230.00000000      0.00000000      0.00000000
       230.00000000      0.00000000
       230.00000000
%ENDBLOCK external_pressure

