# CELL file written 17:28:46 (GMT+1.0) 25th July 2020 from run C2c

%BLOCK lattice_cart
   ANG
       4.95464895943172        0.00000000000000      -0.213663870070474E-01
       0.00000000000000        2.70868120723033        0.00000000000000    
      -3.30349545940370        0.00000000000000        2.82188580470029    
%ENDBLOCK lattice_cart

%BLOCK cell_constraints
      1   2   3
      0   5   0
%ENDBLOCK cell_constraints

%BLOCK positions_frac
   H              0.182439661658958      -0.093837065077258       0.251693235299064
   H              0.347286126334759       0.118918040370394       0.250600098430024
   H              0.500000000000000       0.128189714265434       0.750000000000000
   H              0.500000000000000       0.418196868770038       0.750000000000000
   H              0.817560338341041      -0.093837065077258       0.248306764700934
   H              0.652713873665241       0.118918040370394       0.249399901569976
   H              0.682439661658959       0.406162934922744       0.251693235299064
   H              0.847286126334759       0.618918040370395       0.250600098430024
   H              0.000000000000000       0.628189714265434       0.750000000000000
   H             -0.000000000000000       0.918196868770038       0.750000000000000
   H              0.317560338341042       0.406162934922744       0.248306764700934
   H              0.152713873665241       0.618918040370395       0.249399901569976
   H              0.317560338341042       0.593837065077258       0.748306764700934
   H              0.152713873665241       0.381081959629606       0.749399901569976
   H              0.000000000000000       0.371810285734566       0.250000000000000
   H              0.000000000000000       0.081803131229962       0.250000000000000
   H              0.682439661658959       0.593837065077258       0.751693235299066
   H              0.847286126334759       0.381081959629606       0.750600098430024
   H              0.817560338341041       1.093837065077258       0.748306764700934
   H              0.652713873665241       0.881081959629605       0.749399901569976
   H              0.500000000000000       0.871810285734566       0.250000000000000
   H              0.500000000000000       0.581803131229962       0.250000000000000
   H              0.182439661658958       1.093837065077258       0.751693235299066
   H              0.347286126334759       0.881081959629605       0.750600098430024
%ENDBLOCK positions_frac

FIX_COM : true

%BLOCK species_gamma
   radsectesla
   H          267522128.0    
%ENDBLOCK species_gamma

%BLOCK species_pot
   H       0|0.7|2|6|8|10L(qc=10)
%ENDBLOCK species_pot

SYMMETRY_TOL :     0.001000

%BLOCK symmetry_ops
# Symm. op. 1       E
          1.000000000000000       0.000000000000000       0.000000000000000
          0.000000000000000       1.000000000000000       0.000000000000000
         -0.000000000000000       0.000000000000000       1.000000000000000
          0.000000000000000       0.000000000000000       0.000000000000000
# Symm. op. 2       I
         -1.000000000000000       0.000000000000000       0.000000000000000
          0.000000000000000      -1.000000000000000       0.000000000000000
          0.000000000000000       0.000000000000000      -1.000000000000000
         -0.000000000000000      -0.000000000000000      -0.000000000000000
# Symm. op. 3     2_1
         -1.000000000000000       0.000000000000000       0.000000000000000
          0.000000000000000       1.000000000000000       0.000000000000000
          0.000000000000000       0.000000000000000      -1.000000000000000
          0.500000000000000       0.500000000000000       0.500000000000000
# Symm. op. 4       n
          1.000000000000000       0.000000000000000       0.000000000000000
          0.000000000000000      -1.000000000000000       0.000000000000000
         -0.000000000000000       0.000000000000000       1.000000000000000
          0.500000000000000       0.500000000000000       0.500000000000000
# Symm. op. 5       E
          1.000000000000000       0.000000000000000       0.000000000000000
          0.000000000000000       1.000000000000000       0.000000000000000
         -0.000000000000000       0.000000000000000       1.000000000000000
          0.500000000000000       0.500000000000000       0.000000000000000
# Symm. op. 6       I
         -1.000000000000000       0.000000000000000       0.000000000000000
          0.000000000000000      -1.000000000000000       0.000000000000000
          0.000000000000000       0.000000000000000      -1.000000000000000
          0.500000000000000       0.500000000000000      -0.000000000000000
# Symm. op. 7       2
         -1.000000000000000       0.000000000000000       0.000000000000000
          0.000000000000000       1.000000000000000       0.000000000000000
          0.000000000000000       0.000000000000000      -1.000000000000000
         -0.000000000000000       0.000000000000000       0.500000000000000
# Symm. op. 8       c
          1.000000000000000       0.000000000000000       0.000000000000000
          0.000000000000000      -1.000000000000000       0.000000000000000
         -0.000000000000000       0.000000000000000       1.000000000000000
          0.000000000000000      -0.000000000000000       0.500000000000000
%ENDBLOCK symmetry_ops

kpoint_mp_grid :    2   2   2

phonon_kpoint_mp_grid :    1   1   1

%BLOCK external_pressure
   GPA
       250.00000000      0.00000000      0.00000000
       250.00000000      0.00000000
       250.00000000
%ENDBLOCK external_pressure

