# CELL file written 19:16:03 (GMT+1.0) 25th July 2020 from run C2c

%BLOCK lattice_cart
   ANG
       5.15044152561902        0.00000000000000      -0.204545947151486E-01
       0.00000000000000        2.79636761544578        0.00000000000000    
      -3.43307068304513        0.00000000000000        2.92621695733838    
%ENDBLOCK lattice_cart

%BLOCK cell_constraints
      1   2   3
      0   5   0
%ENDBLOCK cell_constraints

%BLOCK positions_frac
   H              0.166667684388709      -0.109297853970029       0.250000146113136
   H              0.333334202003339       0.109299355484821       0.249999957066927
   H              0.500000000000000       0.109300054302113       0.750000000000000
   H              0.500000000000000       0.390702859176345       0.750000000000000
   H              0.833332315611289      -0.109297853970029       0.249999853886862
   H              0.666665797996661       0.109299355484821       0.250000042933073
   H              0.666667684388711       0.390702146029972       0.250000146113136
   H              0.833334202003339       0.609299355484822       0.249999957066927
   H             -0.000000000000000       0.609300054302113       0.750000000000000
   H              0.000000000000000       0.890702859176346       0.750000000000000
   H              0.333332315611291       0.390702146029972       0.249999853886862
   H              0.166665797996661       0.609299355484822       0.250000042933073
   H              0.333332315611291       0.609297853970029       0.749999853886862
   H              0.166665797996661       0.390700644515179       0.750000042933072
   H              0.000000000000000       0.390699945697887       0.250000000000000
   H              0.000000000000000       0.109297140823655       0.250000000000000
   H              0.666667684388711       0.609297853970029       0.750000146113138
   H              0.833334202003339       0.390700644515179       0.749999957066928
   H              0.833332315611289       1.109297853970031       0.749999853886862
   H              0.666665797996661       0.890700644515178       0.750000042933072
   H              0.500000000000000       0.890699945697887       0.250000000000000
   H              0.500000000000000       0.609297140823654       0.250000000000000
   H              0.166667684388709       1.109297853970031       0.750000146113138
   H              0.333334202003339       0.890700644515178       0.749999957066928
%ENDBLOCK positions_frac

FIX_COM : true

%BLOCK species_gamma
   radsectesla
   H          267522128.0    
%ENDBLOCK species_gamma

%BLOCK species_pot
   H       0|0.7|2|6|8|10L(qc=10)
%ENDBLOCK species_pot

SYMMETRY_TOL :     0.001000

%BLOCK symmetry_ops
# Symm. op. 1       E
          1.000000000000000       0.000000000000000       0.000000000000000
          0.000000000000000       1.000000000000000       0.000000000000000
         -0.000000000000000       0.000000000000000       1.000000000000000
          0.000000000000000       0.000000000000000       0.000000000000000
# Symm. op. 2       I
         -1.000000000000000       0.000000000000000       0.000000000000000
          0.000000000000000      -1.000000000000000       0.000000000000000
          0.000000000000000       0.000000000000000      -1.000000000000000
         -0.000000000000000      -0.000000000000000      -0.000000000000000
# Symm. op. 3     2_1
         -1.000000000000000       0.000000000000000       0.000000000000000
          0.000000000000000       1.000000000000000       0.000000000000000
          0.000000000000000       0.000000000000000      -1.000000000000000
          0.500000000000000       0.500000000000000       0.500000000000000
# Symm. op. 4       n
          1.000000000000000       0.000000000000000       0.000000000000000
          0.000000000000000      -1.000000000000000       0.000000000000000
         -0.000000000000000       0.000000000000000       1.000000000000000
          0.500000000000000       0.500000000000000       0.500000000000000
# Symm. op. 5       E
          1.000000000000000       0.000000000000000       0.000000000000000
          0.000000000000000       1.000000000000000       0.000000000000000
         -0.000000000000000       0.000000000000000       1.000000000000000
          0.500000000000000       0.500000000000000       0.000000000000000
# Symm. op. 6       I
         -1.000000000000000       0.000000000000000       0.000000000000000
          0.000000000000000      -1.000000000000000       0.000000000000000
          0.000000000000000       0.000000000000000      -1.000000000000000
          0.500000000000000       0.500000000000000      -0.000000000000000
# Symm. op. 7       2
         -1.000000000000000       0.000000000000000       0.000000000000000
          0.000000000000000       1.000000000000000       0.000000000000000
          0.000000000000000       0.000000000000000      -1.000000000000000
         -0.000000000000000       0.000000000000000       0.500000000000000
# Symm. op. 8       c
          1.000000000000000       0.000000000000000       0.000000000000000
          0.000000000000000      -1.000000000000000       0.000000000000000
         -0.000000000000000       0.000000000000000       1.000000000000000
          0.000000000000000      -0.000000000000000       0.500000000000000
%ENDBLOCK symmetry_ops

kpoint_mp_grid :    2   2   2

phonon_kpoint_mp_grid :    1   1   1

%BLOCK external_pressure
   GPA
       190.00000000      0.00000000      0.00000000
       190.00000000      0.00000000
       190.00000000
%ENDBLOCK external_pressure

