# CELL file written 02:24:13 (GMT+1.0) 3rd September 2020 from run Cmca-12

%BLOCK lattice_cart
   ANG
       2.55952923876170      -0.525202663070425E-11  -0.452251774328959E-11
     -0.976579361530017E-11    4.75596479259008      -0.129720205085103E-05
     -0.509861672436598E-11  -0.787107497122083E-06    2.86670772030852    
%ENDBLOCK lattice_cart

%BLOCK positions_frac
   H             -0.000000000007801       0.003930363278834       0.134557685173479
   H             -0.000000000000373       0.131893415689375       0.455567548897498
   H             -0.000000000022655       0.266962340937804       0.316715937012904
   H              0.499999999972254       0.266962537695068       0.183282006378418
   H              0.500000000029476       0.131892952030070       0.044431368468164
   H              0.499999999984387       0.003932308220561       0.365443029917765
   H              0.500000000016092       0.233037650191497       0.683284064933025
   H              0.500000000000334       0.368106575115810       0.544432446212005
   H              0.499999999998937       0.496069632965287       0.865442311788492
   H              0.500000000013130       0.733037462059463       0.816717993734241
   H              0.499999999989485       0.868107048104575       0.955568631882501
   H              0.500000000001401       0.996067692105604       0.634556969827472
   H              0.499999999987325       0.766962349438947       0.316715934952736
   H              0.500000000002339       0.631893425279337       0.455567553126384
   H              0.500000000004354       0.503930366732861       0.134557688729709
   H             -0.000000000014805       0.766962546472185       0.183282008954239
   H              0.000000000009855       0.631892960814714       0.044431363641892
   H             -0.000000000006670       0.503932311506651       0.365443022958327
   H              0.000000000012295       0.733037659016636       0.683284062683159
   H             -0.000000000009164       0.868106584358552       0.544432450953300
   H              0.000000000016367       0.996069637085714       0.865442315010767
   H              0.000000000015074       0.233037453016046       0.816717991019979
   H             -0.000000000005343       0.368107039725529       0.955568637254266
   H              0.000000000013707       0.496067688158878       0.634556976489280
%ENDBLOCK positions_frac

FIX_COM : true

%BLOCK species_mass
   AMU
   H          1.007825032    
%ENDBLOCK species_mass

%BLOCK species_gamma
   radsectesla
   H          267522128.0    
%ENDBLOCK species_gamma

%BLOCK species_pot
   H       1|0.6|13|15|17|10(qc=8)
%ENDBLOCK species_pot

SYMMETRY_TOL :     0.001000

%BLOCK symmetry_ops
# Symm. op. 1       E
          1.000000000000000       0.000000000000000       0.000000000000000
          0.000000000000000       1.000000000000000       0.000000000000000
          0.000000000000000       0.000000000000000       1.000000000000000
          0.000000000000000       0.000000000000000       0.000000000000000
%ENDBLOCK symmetry_ops

kpoint_mp_grid :   18  18  18

%BLOCK external_pressure
   GPA
       300.00000000      0.00000000      0.00000000
       300.00000000      0.00000000
       300.00000000
%ENDBLOCK external_pressure

