# CELL file written 10:10:02 (GMT+1.0) 3rd September 2020 from run Cmca-12

%BLOCK lattice_cart
   ANG
       2.59865697186045       0.165445563007868E-11   0.296767561845303E-11
      0.305647272261403E-11    4.82435343298256      -0.140799357608584E-05
      0.334715893670710E-11  -0.854321537892751E-06    2.90645423145412    
%ENDBLOCK lattice_cart

%BLOCK positions_frac
   H             -0.000000000009509       0.003023738097605       0.132575691632732
   H              0.000000000005671       0.132100980753920       0.455283136105170
   H              0.000000000020321       0.265023546998035       0.317882548775525
   H              0.500000000012907       0.265023655553573       0.182115591291390
   H              0.499999999996067       0.132100613559196       0.044715538057602
   H              0.499999999989701       0.003025603546956       0.367425128522182
   H              0.500000000008870       0.234976476832233       0.682117448386042
   H              0.500000000006138       0.367899022037134       0.544716867896848
   H              0.499999999968575       0.496976269616063       0.867424390557561
   H              0.500000000009370       0.734976344730362       0.817884413939746
   H              0.499999999989236       0.867899384108401       0.955284472772418
   H              0.500000000000843       0.996974401654772       0.632574861759338
   H              0.500000000019418       0.765023524188406       0.317882546871474
   H              0.499999999981516       0.632100971858292       0.455283126313210
   H              0.500000000017186       0.503023733654369       0.132575612931679
   H             -0.000000000009125       0.765023650406664       0.182115600680951
   H              0.000000000001471       0.632100599540669       0.044715538655232
   H              0.000000000021781       0.503025602227237       0.367425127706063
   H              0.000000000000800       0.734976452635761       0.682117446490278
   H             -0.000000000007647       0.867899014500655       0.544716856607109
   H              0.000000000012786       0.996976266556221       0.867424315201567
   H             -0.000000000008963       0.234976354053310       0.817884408339782
   H              0.000000000001466       0.367899392970988       0.955284465589626
   H             -0.000000000028878       0.496974399919177       0.632574864916479
%ENDBLOCK positions_frac

FIX_COM : true

%BLOCK species_mass
   AMU
   H          1.007825032    
%ENDBLOCK species_mass

%BLOCK species_gamma
   radsectesla
   H          267522128.0    
%ENDBLOCK species_gamma

%BLOCK species_pot
   H       1|0.6|13|15|17|10(qc=8)
%ENDBLOCK species_pot

SYMMETRY_TOL :     0.001000

%BLOCK symmetry_ops
# Symm. op. 1       E
          1.000000000000000       0.000000000000000       0.000000000000000
          0.000000000000000       1.000000000000000       0.000000000000000
          0.000000000000000       0.000000000000000       1.000000000000000
          0.000000000000000       0.000000000000000       0.000000000000000
%ENDBLOCK symmetry_ops

kpoint_mp_grid :   18  18  18

%BLOCK external_pressure
   GPA
       270.00000000      0.00000000      0.00000000
       270.00000000      0.00000000
       270.00000000
%ENDBLOCK external_pressure

