# CELL file written 19:27:17 (GMT+1.0) 3rd September 2020 from run Cmca-12

%BLOCK lattice_cart
   ANG
       2.64254864764447       0.660894691704769E-11   0.242135956447870E-11
      0.122894645440392E-10    4.90202708832913      -0.133172870899012E-05
      0.273415190139121E-11  -0.809151004659785E-06    2.95147405198339    
%ENDBLOCK lattice_cart

%BLOCK positions_frac
   H             -0.000000000012649       0.002159830179409       0.130333842108658
   H             -0.000000000002100       0.132356865430771       0.455098941386825
   H             -0.000000000002440       0.262866321834118       0.319322220029297
   H              0.500000000005732       0.262866287231688       0.180676654276557
   H              0.499999999984051       0.132356767806045       0.044899496619821
   H              0.499999999987741       0.002161298144836       0.369666829847364
   H              0.499999999979716       0.237133669824622       0.680677783575585
   H              0.500000000006248       0.367643136259523       0.544901048300842
   H              0.500000000043019       0.497840165947691       0.869666159753002
   H              0.500000000030737       0.737133707215880       0.819323334688120
   H              0.499999999987347       0.867643240965544       0.955100506254829
   H              0.500000000015635       0.997838701260537       0.630333171467002
   H              0.500000000030654       0.762866322701525       0.319322228730280
   H              0.499999999961682       0.632356872443403       0.455098947829663
   H              0.499999999964273       0.502159833045173       0.130333837421928
   H             -0.000000000014165       0.762866295085807       0.180676671561977
   H             -0.000000000002164       0.632356769727139       0.044899496997173
   H             -0.000000000022928       0.502161300494633       0.369666828163207
   H              0.000000000027584       0.737133679008688       0.680677775359886
   H             -0.000000000014805       0.867643130151907       0.544901068559821
   H              0.000000000019233       0.997840170332091       0.869666155395251
   H             -0.000000000010640       0.237133702836405       0.819323330303828
   H             -0.000000000007538       0.367643232480759       0.955100500765826
   H              0.000000000045781       0.497838699591803       0.630333170603264
%ENDBLOCK positions_frac

FIX_COM : true

%BLOCK species_mass
   AMU
   H          1.007825032    
%ENDBLOCK species_mass

%BLOCK species_gamma
   radsectesla
   H          267522128.0    
%ENDBLOCK species_gamma

%BLOCK species_pot
   H       1|0.6|13|15|17|10(qc=8)
%ENDBLOCK species_pot

SYMMETRY_TOL :     0.001000

%BLOCK symmetry_ops
# Symm. op. 1       E
          1.000000000000000       0.000000000000000       0.000000000000000
          0.000000000000000       1.000000000000000       0.000000000000000
          0.000000000000000       0.000000000000000       1.000000000000000
          0.000000000000000       0.000000000000000       0.000000000000000
%ENDBLOCK symmetry_ops

kpoint_mp_grid :   18  18  18

%BLOCK external_pressure
   GPA
       240.00000000      0.00000000      0.00000000
       240.00000000      0.00000000
       240.00000000
%ENDBLOCK external_pressure

