%BLOCK LATTICE_ABC
2.54 2.54 2.54
%ENDBLOCK LATTICE_ABC

%BLOCK POSITIONS_FRAC
C 0.00 0.00 0.00
%ENDBLOCK POSITIONS_FRAC

SYMMETRY_GENERATE