%BLOCK LATTICE_ABC
2.54 2.54 2.54
60.0 60.0 60.0
%ENDBLOCK LATTICE_ABC

%BLOCK POSITIONS_FRAC
C 0.00 0.00 0.00
C 0.25 0.25 0.25
%ENDBLOCK POSITIONS_FRAC

SYMMETRY_GENERATE