|60,30,5|
# CELL file written 22:07:55 (GMT+1.0) 27th July 2020 from run Pbcn

%BLOCK lattice_cart
   ANG
       3.54525244468992      -0.146278419963067E-33    0.00000000000000    
     -0.254620324250571E-33    6.16009447944059        0.00000000000000    
       0.00000000000000        0.00000000000000        6.10896357419157    
%ENDBLOCK lattice_cart

%BLOCK cell_constraints
      1   2   3
      0   0   0
%ENDBLOCK cell_constraints

%BLOCK positions_frac
   H              0.413599106477131       0.125235845448567       0.024698341934748
   H              0.566573097467304       0.203200226526372       0.049463696625982
   H              0.563140049616665       0.546733149094599       0.003753689259914
   H              0.105617738595693       0.169081228113315       0.245569785478869
   H              0.297767721407513       0.363771857552655       0.237952703688688
   H              0.192851538896966       0.467890909428727       0.256733030807302
   H              0.192851538896966       0.532109090571272       0.756733030807302
   H              0.297767721407513       0.636228142447345       0.737952703688687
   H              0.105617738595693       0.830918771886684       0.745569785478870
   H              0.563140049616665       0.453266850905402       0.503753689259914
   H              0.566573097467304       0.796799773473631       0.549463696625982
   H              0.413599106477131       0.874764154551433       0.524698341934749
   H              0.307148461103034       0.967890909428728       0.256733030807302
   H              0.202232278592488       0.863771857552654       0.237952703688688
   H              0.394382261404306       0.669081228113316       0.245569785478869
   H             -0.063140049616665       0.046733149094600       0.003753689259914
   H             -0.066573097467301       0.703200226526369       0.049463696625982
   H              0.086400893522868       0.625235845448567       0.024698341934748
   H              0.692851538896966       0.967890909428728       0.243266969192698
   H              0.797767721407514       0.863771857552654       0.262047296311312
   H              0.605617738595693       0.669081228113316       0.254430214521131
   H              1.063140049616665       0.046733149094600       0.496246310740086
   H              1.066573097467302       0.703200226526369       0.450536303374018
   H              0.913599106477133       0.625235845448567       0.475301658065253
   H              0.807148461103035       0.532109090571272       0.743266969192698
   H              0.702232278592486       0.636228142447345       0.762047296311313
   H              0.894382261404307       0.830918771886684       0.754430214521130
   H              0.436859950383336       0.453266850905402      -0.003753689259914
   H              0.433426902532697       0.796799773473631       0.950536303374018
   H              0.586400893522867       0.874764154551433       0.975301658065251
   H              0.807148461103035       0.467890909428727       0.243266969192698
   H              0.702232278592486       0.363771857552655       0.262047296311312
   H              0.894382261404307       0.169081228113315       0.254430214521131
   H              0.436859950383336       0.546733149094599       0.496246310740086
   H              0.433426902532697       0.203200226526372       0.450536303374018
   H              0.586400893522867       0.125235845448567       0.475301658065253
   H              0.692851538896966       0.032109090571272       0.743266969192698
   H              0.797767721407514       0.136228142447345       0.762047296311313
   H              0.605617738595693       0.330918771886685       0.754430214521130
   H              0.063140049616665      -0.046733149094600      -0.003753689259914
   H              1.066573097467302       0.296799773473629       0.950536303374018
   H              0.913599106477133       0.374764154551435       0.975301658065251
   H              0.307148461103034       0.032109090571272       0.756733030807302
   H              0.202232278592488       0.136228142447345       0.737952703688687
   H              0.394382261404306       0.330918771886685       0.745569785478870
   H              0.936859950383335      -0.046733149094600       0.503753689259914
   H             -0.066573097467301       0.296799773473629       0.549463696625982
   H              0.086400893522868       0.374764154551435       0.524698341934749
%ENDBLOCK positions_frac

FIX_COM : true

%BLOCK species_mass
   AMU
   H          1.007825032    
%ENDBLOCK species_mass

%BLOCK species_gamma
   radsectesla
   H          267522128.0    
%ENDBLOCK species_gamma

%BLOCK species_pot
   H       0|0.7|2|6|8|10L(qc=10)
%ENDBLOCK species_pot

SYMMETRY_TOL :     0.001000

%BLOCK symmetry_ops
# Symm. op. 1       E
          1.000000000000000       0.000000000000000       0.000000000000000
          0.000000000000000       1.000000000000000       0.000000000000000
          0.000000000000000       0.000000000000000       1.000000000000000
          0.000000000000000       0.000000000000000       0.000000000000000
# Symm. op. 2       I
         -1.000000000000000       0.000000000000000       0.000000000000000
          0.000000000000000      -1.000000000000000       0.000000000000000
          0.000000000000000       0.000000000000000      -1.000000000000000
         -0.000000000000000      -0.000000000000000       0.000000000000000
# Symm. op. 3     2_1
         -1.000000000000000       0.000000000000000       0.000000000000000
          0.000000000000000      -1.000000000000000       0.000000000000000
          0.000000000000000       0.000000000000000       1.000000000000000
          0.500000000000000       0.500000000000000       0.500000000000000
# Symm. op. 4       n
          1.000000000000000       0.000000000000000       0.000000000000000
          0.000000000000000       1.000000000000000       0.000000000000000
          0.000000000000000       0.000000000000000      -1.000000000000000
          0.500000000000000       0.500000000000000       0.500000000000000
# Symm. op. 5     2_1
          1.000000000000000       0.000000000000000       0.000000000000000
          0.000000000000000      -1.000000000000000       0.000000000000000
          0.000000000000000       0.000000000000000      -1.000000000000000
          0.500000000000000       0.500000000000000       0.000000000000000
# Symm. op. 6       b
         -1.000000000000000       0.000000000000000       0.000000000000000
          0.000000000000000       1.000000000000000       0.000000000000000
          0.000000000000000       0.000000000000000       1.000000000000000
          0.500000000000000       0.500000000000000       0.000000000000000
# Symm. op. 7       2
         -1.000000000000000       0.000000000000000       0.000000000000000
          0.000000000000000       1.000000000000000       0.000000000000000
          0.000000000000000       0.000000000000000      -1.000000000000000
          0.000000000000000       0.000000000000000       0.500000000000000
# Symm. op. 8       c
          1.000000000000000       0.000000000000000       0.000000000000000
          0.000000000000000      -1.000000000000000       0.000000000000000
          0.000000000000000       0.000000000000000       1.000000000000000
          0.000000000000000      -0.000000000000000       0.500000000000000
%ENDBLOCK symmetry_ops

kpoint_mp_grid :    5   5   5

phonon_kpoint_mp_grid :    8   6   4

