# CELL file written 14:19:22 (GMT+1.0) 31st July 2020 from run P21c

%BLOCK lattice_cart
   ANG
       10.1403715715987        0.00000000000000       0.151469321957470E-02
       0.00000000000000        2.11327111346574        0.00000000000000    
      -6.76180524456980        0.00000000000000        3.64338011395138    
%ENDBLOCK lattice_cart

%BLOCK cell_constraints
      1   2   3
      0   5   0
%ENDBLOCK cell_constraints

%BLOCK positions_frac
   H              0.837332822625117       0.646018383300250       0.106349918177663
   H              0.162667177374883       0.353981616699749       0.893650081822337
   H              0.837332822625117       0.853981616699750       0.606349918177662
   H              0.162667177374883       0.146018383300251       0.393650081822337
   H              0.881331344759099       0.406805550300954       0.221742644020061
   H              0.118668655240901       0.593194449699045       0.778257355979940
   H              0.881331344759099       0.093194449699044       0.721742644020060
   H              0.118668655240901       0.906805550300955       0.278257355979939
   H              0.858504212014015       0.114582996441130       0.414459185788993
   H              0.141495787985985       0.885417003558869       0.585540814211008
   H              0.858504212014015       0.385417003558869       0.914459185788992
   H              0.141495787985985       0.614582996441131       0.085540814211007
   H              0.750781976687172       0.910130869897752       0.250033977445515
   H              0.249218023312827       0.089869130102247       0.749966022554486
   H              0.750781976687172       0.589869130102248       0.750033977445514
   H              0.249218023312827       0.410130869897753       0.249966022554485
   H              0.572782213669257       0.395774101926927       0.192561425228678
   H              0.427217786330742       0.604225898073073       0.807438574771322
   H              0.572782213669257       0.104225898073073       0.692561425228678
   H              0.427217786330742       0.895774101926927       0.307438574771322
   H              0.480573727145898       0.595231296096311       0.139063812505735
   H              0.519426272854102       0.404768703903687       0.860936187494264
   H              0.480573727145898       0.904768703903688       0.639063812505736
   H              0.519426272854102       0.095231296096313       0.360936187494265
%ENDBLOCK positions_frac

FIX_COM : true

%BLOCK species_gamma
   radsectesla
   H          267522128.0    
%ENDBLOCK species_gamma

%BLOCK species_pot
   H       0|0.7|2|6|8|10L(qc=10)
%ENDBLOCK species_pot

SYMMETRY_TOL :     0.001000

%BLOCK symmetry_ops
# Symm. op. 1       E
          1.000000000000000       0.000000000000000       0.000000000000000
          0.000000000000000       1.000000000000000       0.000000000000000
          0.000000000000000       0.000000000000000       1.000000000000000
          0.000000000000000       0.000000000000000       0.000000000000000
# Symm. op. 2       I
         -1.000000000000000       0.000000000000000       0.000000000000000
          0.000000000000000      -1.000000000000000       0.000000000000000
         -0.000000000000000       0.000000000000000      -1.000000000000000
          0.000000000000000       0.000000000000000      -0.000000000000000
# Symm. op. 3     2_1
         -1.000000000000000       0.000000000000000       0.000000000000000
          0.000000000000000       1.000000000000000       0.000000000000000
         -0.000000000000000       0.000000000000000      -1.000000000000000
          0.000000000000000       0.500000000000000       0.500000000000000
# Symm. op. 4       c
          1.000000000000000       0.000000000000000       0.000000000000000
          0.000000000000000      -1.000000000000000       0.000000000000000
          0.000000000000000       0.000000000000000       1.000000000000000
          0.000000000000000       0.500000000000000       0.500000000000000
%ENDBLOCK symmetry_ops

kpoint_mp_grid :    8   8   8
phonon_kpoint_mp_grid :    1   1   1

%BLOCK external_pressure
   GPA
        40.00000000      0.00000000      0.00000000
        40.00000000      0.00000000
        40.00000000
%ENDBLOCK external_pressure

