# CELL file written 00:31:16 (GMT+1.0) 28th July 2020 from run P21c

%BLOCK lattice_cart
   ANG
       9.85252852689785        0.00000000000000       0.139008534551716E-02
       0.00000000000000        2.05883999337032        0.00000000000000    
      -6.56989653266147        0.00000000000000        3.55039777602509    
%ENDBLOCK lattice_cart

%BLOCK cell_constraints
      1   2   3
      0   5   0
%ENDBLOCK cell_constraints

%BLOCK positions_frac
   H              0.835570554856390       0.652902372833225       0.103669664288822
   H              0.164429445143610       0.347097627166774       0.896330335711178
   H              0.835570554856390       0.847097627166775       0.603669664288821
   H              0.164429445143610       0.152902372833226       0.396330335711178
   H              0.882510256994862       0.406269112916216       0.223182711269662
   H              0.117489743005137       0.593730887083783       0.776817288730339
   H              0.882510256994862       0.093730887083783       0.723182711269661
   H              0.117489743005137       0.906269112916217       0.276817288730338
   H              0.859897525685231       0.118852950274462       0.416290388540030
   H              0.140102474314769       0.881147049725538       0.583709611459970
   H              0.859897525685231       0.381147049725538       0.916290388540030
   H              0.140102474314769       0.618852950274462       0.083709611459970
   H              0.749332225613597       0.908913836834275       0.247980129423463
   H              0.250667774386402       0.091086163165723       0.752019870576538
   H              0.749332225613597       0.591086163165725       0.747980129423462
   H              0.250667774386402       0.408913836834277       0.252019870576536
   H              0.573780044627531       0.392410801026557       0.193347927973411
   H              0.426219955372468       0.607589198973443       0.806652072026589
   H              0.573780044627531       0.107589198973443       0.693347927973411
   H              0.426219955372468       0.892410801026557       0.306652072026589
   H              0.478875953998640       0.598881308580141       0.137432270777113
   H              0.521124046001361       0.401118691419858       0.862567729222886
   H              0.478875953998640       0.901118691419858       0.637432270777114
   H              0.521124046001361       0.098881308580142       0.362567729222887
%ENDBLOCK positions_frac

FIX_COM : true

%BLOCK species_gamma
   radsectesla
   H          267522128.0    
%ENDBLOCK species_gamma

%BLOCK species_pot
   H       0|0.7|2|6|8|10L(qc=10)
%ENDBLOCK species_pot

SYMMETRY_TOL :     0.001000

%BLOCK symmetry_ops
# Symm. op. 1       E
          1.000000000000000       0.000000000000000       0.000000000000000
          0.000000000000000       1.000000000000000       0.000000000000000
          0.000000000000000       0.000000000000000       1.000000000000000
          0.000000000000000       0.000000000000000       0.000000000000000
# Symm. op. 2       I
         -1.000000000000000       0.000000000000000       0.000000000000000
          0.000000000000000      -1.000000000000000       0.000000000000000
         -0.000000000000000       0.000000000000000      -1.000000000000000
          0.000000000000000       0.000000000000000      -0.000000000000000
# Symm. op. 3     2_1
         -1.000000000000000       0.000000000000000       0.000000000000000
          0.000000000000000       1.000000000000000       0.000000000000000
         -0.000000000000000       0.000000000000000      -1.000000000000000
          0.000000000000000       0.500000000000000       0.500000000000000
# Symm. op. 4       c
          1.000000000000000       0.000000000000000       0.000000000000000
          0.000000000000000      -1.000000000000000       0.000000000000000
          0.000000000000000       0.000000000000000       1.000000000000000
          0.000000000000000       0.500000000000000       0.500000000000000
%ENDBLOCK symmetry_ops

kpoint_mp_grid :    8   8   8

phonon_kpoint_mp_grid :    1   1   1

%BLOCK external_pressure
   GPA
        50.00000000      0.00000000      0.00000000
        50.00000000      0.00000000
        50.00000000
%ENDBLOCK external_pressure

