# CELL file written 21:18:05 (GMT+1.0) 21st July 2020 from run C2c

%BLOCK lattice_cart
   ANG
       5.32001243168214        0.00000000000000      -0.194701526170317E-01
       0.00000000000000        2.87021350702671        0.00000000000000    
      -3.54518074862893        0.00000000000000        3.01667452002669    
%ENDBLOCK lattice_cart

%BLOCK cell_constraints
      1   2   3
      0   5   0
%ENDBLOCK cell_constraints

%BLOCK positions_frac
   H              0.166666778774201      -0.113490700290659       0.250000008163406
   H              0.333333464423974       0.113491045354919       0.250000007324485
   H              0.500000000000000       0.113490968135369       0.750000000000000
   H              0.500000000000000       0.386509229532934       0.750000000000000
   H              0.833333221225797      -0.113490700290659       0.249999991836593
   H              0.666666535576026       0.113491045354919       0.249999992675515
   H              0.666666778774203       0.386509299709343       0.250000008163406
   H              0.833333464423974       0.613491045354920       0.250000007324485
   H              0.000000000000000       0.613490968135369       0.750000000000000
   H              0.000000000000000       0.886509229532935       0.750000000000000
   H              0.333333221225799       0.386509299709343       0.249999991836593
   H              0.166666535576026       0.613491045354920       0.249999992675515
   H              0.333333221225799       0.613490700290659       0.749999991836593
   H              0.166666535576026       0.386508954645081       0.749999992675515
   H              0.000000000000000       0.386509031864631       0.250000000000000
   H              0.000000000000000       0.113490770467066       0.250000000000000
   H              0.666666778774203       0.613490700290659       0.750000008163407
   H              0.833333464423974       0.386508954645081       0.750000007324485
   H              0.833333221225797       1.113490700290660       0.749999991836593
   H              0.666666535576026       0.886508954645080       0.749999992675515
   H              0.500000000000000       0.886509031864631       0.250000000000000
   H              0.500000000000000       0.613490770467065       0.250000000000000
   H              0.166666778774201       1.113490700290660       0.750000008163407
   H              0.333333464423974       0.886508954645080       0.750000007324485
%ENDBLOCK positions_frac

FIX_COM : true

%BLOCK species_gamma
   radsectesla
   H          267522128.0    
%ENDBLOCK species_gamma

%BLOCK species_pot
   H       0|0.7|2|6|8|10L(qc=10)
%ENDBLOCK species_pot

SYMMETRY_TOL :     0.001000

%BLOCK symmetry_ops
# Symm. op. 1       E
          1.000000000000000       0.000000000000000       0.000000000000000
          0.000000000000000       1.000000000000000       0.000000000000000
         -0.000000000000000       0.000000000000000       1.000000000000000
          0.000000000000000       0.000000000000000       0.000000000000000
# Symm. op. 2       I
         -1.000000000000000       0.000000000000000       0.000000000000000
          0.000000000000000      -1.000000000000000       0.000000000000000
          0.000000000000000       0.000000000000000      -1.000000000000000
         -0.000000000000000      -0.000000000000000      -0.000000000000000
# Symm. op. 3     2_1
         -1.000000000000000       0.000000000000000       0.000000000000000
          0.000000000000000       1.000000000000000       0.000000000000000
          0.000000000000000       0.000000000000000      -1.000000000000000
          0.500000000000000       0.500000000000000       0.500000000000000
# Symm. op. 4       n
          1.000000000000000       0.000000000000000       0.000000000000000
          0.000000000000000      -1.000000000000000       0.000000000000000
         -0.000000000000000       0.000000000000000       1.000000000000000
          0.500000000000000       0.500000000000000       0.500000000000000
# Symm. op. 5       E
          1.000000000000000       0.000000000000000       0.000000000000000
          0.000000000000000       1.000000000000000       0.000000000000000
         -0.000000000000000       0.000000000000000       1.000000000000000
          0.500000000000000       0.500000000000000       0.000000000000000
# Symm. op. 6       I
         -1.000000000000000       0.000000000000000       0.000000000000000
          0.000000000000000      -1.000000000000000       0.000000000000000
          0.000000000000000       0.000000000000000      -1.000000000000000
          0.500000000000000       0.500000000000000      -0.000000000000000
# Symm. op. 7       2
         -1.000000000000000       0.000000000000000       0.000000000000000
          0.000000000000000       1.000000000000000       0.000000000000000
          0.000000000000000       0.000000000000000      -1.000000000000000
         -0.000000000000000       0.000000000000000       0.500000000000000
# Symm. op. 8       c
          1.000000000000000       0.000000000000000       0.000000000000000
          0.000000000000000      -1.000000000000000       0.000000000000000
         -0.000000000000000       0.000000000000000       1.000000000000000
          0.000000000000000      -0.000000000000000       0.500000000000000
%ENDBLOCK symmetry_ops

kpoint_mp_grid :    2   2   2

phonon_kpoint_mp_grid :    1   1   1

%BLOCK external_pressure
   GPA
       150.00000000      0.00000000      0.00000000
       150.00000000      0.00000000
       150.00000000
%ENDBLOCK external_pressure

