# CELL file written 21:13:34 (GMT+1.0) 21st July 2020 from run C2c

%BLOCK lattice_cart
   ANG
       4.98342892837320        0.00000000000000      -0.212509353833154E-01
       0.00000000000000        2.72173365488413        0.00000000000000    
      -3.32255205047363        0.00000000000000        2.83733795005925    
%ENDBLOCK lattice_cart

%BLOCK cell_constraints
      1   2   3
      0   5   0
%ENDBLOCK cell_constraints

%BLOCK positions_frac
   H              0.180816765821865      -0.095612466123613       0.251518845287267
   H              0.345941997776569       0.117869346046885       0.250561416998279
   H              0.500000000000000       0.126496139274261       0.750000000000000
   H              0.500000000000000       0.415302823166072       0.750000000000000
   H              0.819183234178134      -0.095612466123613       0.248481154712732
   H              0.654058002223431       0.117869346046885       0.249438583001721
   H              0.680816765821866       0.404387533876389       0.251518845287267
   H              0.845941997776569       0.617869346046886       0.250561416998279
   H              0.000000000000000       0.626496139274261       0.750000000000000
   H              0.000000000000000       0.915302823166072       0.750000000000000
   H              0.319183234178136       0.404387533876389       0.248481154712732
   H              0.154058002223431       0.617869346046886       0.249438583001721
   H              0.319183234178136       0.595612466123613       0.748481154712732
   H              0.154058002223431       0.382130653953115       0.749438583001721
   H             -0.000000000000000       0.373503860725739       0.250000000000000
   H             -0.000000000000000       0.084697176833928       0.250000000000000
   H              0.680816765821866       0.595612466123613       0.751518845287268
   H              0.845941997776569       0.382130653953115       0.750561416998279
   H              0.819183234178134       1.095612466123614       0.748481154712732
   H              0.654058002223431       0.882130653953114       0.749438583001721
   H              0.500000000000000       0.873503860725739       0.250000000000000
   H              0.500000000000000       0.584697176833928       0.250000000000000
   H              0.180816765821865       1.095612466123614       0.751518845287268
   H              0.345941997776569       0.882130653953114       0.750561416998279
%ENDBLOCK positions_frac

FIX_COM : true

%BLOCK species_gamma
   radsectesla
   H          267522128.0    
%ENDBLOCK species_gamma

%BLOCK species_pot
   H       0|0.7|2|6|8|10L(qc=10)
%ENDBLOCK species_pot

SYMMETRY_TOL :     0.001000

%BLOCK symmetry_ops
# Symm. op. 1       E
          1.000000000000000       0.000000000000000       0.000000000000000
          0.000000000000000       1.000000000000000       0.000000000000000
         -0.000000000000000       0.000000000000000       1.000000000000000
          0.000000000000000       0.000000000000000       0.000000000000000
# Symm. op. 2       I
         -1.000000000000000       0.000000000000000       0.000000000000000
          0.000000000000000      -1.000000000000000       0.000000000000000
          0.000000000000000       0.000000000000000      -1.000000000000000
         -0.000000000000000      -0.000000000000000      -0.000000000000000
# Symm. op. 3     2_1
         -1.000000000000000       0.000000000000000       0.000000000000000
          0.000000000000000       1.000000000000000       0.000000000000000
          0.000000000000000       0.000000000000000      -1.000000000000000
          0.500000000000000       0.500000000000000       0.500000000000000
# Symm. op. 4       n
          1.000000000000000       0.000000000000000       0.000000000000000
          0.000000000000000      -1.000000000000000       0.000000000000000
         -0.000000000000000       0.000000000000000       1.000000000000000
          0.500000000000000       0.500000000000000       0.500000000000000
# Symm. op. 5       E
          1.000000000000000       0.000000000000000       0.000000000000000
          0.000000000000000       1.000000000000000       0.000000000000000
         -0.000000000000000       0.000000000000000       1.000000000000000
          0.500000000000000       0.500000000000000       0.000000000000000
# Symm. op. 6       I
         -1.000000000000000       0.000000000000000       0.000000000000000
          0.000000000000000      -1.000000000000000       0.000000000000000
          0.000000000000000       0.000000000000000      -1.000000000000000
          0.500000000000000       0.500000000000000      -0.000000000000000
# Symm. op. 7       2
         -1.000000000000000       0.000000000000000       0.000000000000000
          0.000000000000000       1.000000000000000       0.000000000000000
          0.000000000000000       0.000000000000000      -1.000000000000000
         -0.000000000000000       0.000000000000000       0.500000000000000
# Symm. op. 8       c
          1.000000000000000       0.000000000000000       0.000000000000000
          0.000000000000000      -1.000000000000000       0.000000000000000
         -0.000000000000000       0.000000000000000       1.000000000000000
          0.000000000000000      -0.000000000000000       0.500000000000000
%ENDBLOCK symmetry_ops

kpoint_mp_grid :    2   2   2

phonon_kpoint_mp_grid :    1   1   1

%BLOCK external_pressure
   GPA
       240.00000000      0.00000000      0.00000000
       240.00000000      0.00000000
       240.00000000
%ENDBLOCK external_pressure

