# CELL file written 21:19:15 (GMT+1.0) 21st July 2020 from run C2c

%BLOCK lattice_cart
   ANG
       5.49152281130523        0.00000000000000      -0.179651103865666E-01
       0.00000000000000        2.94224724251816        0.00000000000000    
      -3.65831308517475        0.00000000000000        3.10037374235048    
%ENDBLOCK lattice_cart

%BLOCK cell_constraints
      1   2   3
      0   5   0
%ENDBLOCK cell_constraints

%BLOCK positions_frac
   H              0.166666721545681      -0.117657387607464       0.249999996922602
   H              0.333333379923747       0.117657482150925       0.250000008185551
   H              0.500000000000000       0.117657498176734       0.750000000000000
   H              0.500000000000000       0.382342623360917       0.750000000000000
   H              0.833333278454317      -0.117657387607464       0.250000003077397
   H              0.666666620076253       0.117657482150925       0.249999991814449
   H              0.666666721545683       0.382342612392537       0.249999996922602
   H              0.833333379923747       0.617657482150927       0.250000008185551
   H              0.000000000000000       0.617657498176734       0.750000000000000
   H              0.000000000000000       0.882342623360918       0.750000000000000
   H              0.333333278454319       0.382342612392537       0.250000003077397
   H              0.166666620076253       0.617657482150927       0.249999991814449
   H              0.333333278454319       0.617657387607464       0.750000003077397
   H              0.166666620076253       0.382342517849075       0.749999991814449
   H             -0.000000000000000       0.382342501823266       0.250000000000000
   H              0.000000000000000       0.117657376639083       0.250000000000000
   H              0.666666721545683       0.617657387607464       0.749999996922603
   H              0.833333379923747       0.382342517849075       0.750000008185551
   H              0.833333278454317       1.117657387607466       0.750000003077397
   H              0.666666620076253       0.882342517849073       0.749999991814449
   H              0.500000000000000       0.882342501823266       0.250000000000000
   H              0.500000000000000       0.617657376639082       0.250000000000000
   H              0.166666721545681       1.117657387607466       0.749999996922603
   H              0.333333379923747       0.882342517849073       0.750000008185551
%ENDBLOCK positions_frac

FIX_COM : true

%BLOCK species_gamma
   radsectesla
   H          267522128.0    
%ENDBLOCK species_gamma

%BLOCK species_pot
   H       0|0.7|2|6|8|10L(qc=10)
%ENDBLOCK species_pot

SYMMETRY_TOL :     0.001000

%BLOCK symmetry_ops
# Symm. op. 1       E
          1.000000000000000       0.000000000000000       0.000000000000000
          0.000000000000000       1.000000000000000       0.000000000000000
         -0.000000000000000       0.000000000000000       1.000000000000000
          0.000000000000000       0.000000000000000       0.000000000000000
# Symm. op. 2       I
         -1.000000000000000       0.000000000000000       0.000000000000000
          0.000000000000000      -1.000000000000000       0.000000000000000
          0.000000000000000       0.000000000000000      -1.000000000000000
         -0.000000000000000      -0.000000000000000      -0.000000000000000
# Symm. op. 3     2_1
         -1.000000000000000       0.000000000000000       0.000000000000000
          0.000000000000000       1.000000000000000       0.000000000000000
          0.000000000000000       0.000000000000000      -1.000000000000000
          0.500000000000000       0.500000000000000       0.500000000000000
# Symm. op. 4       n
          1.000000000000000       0.000000000000000       0.000000000000000
          0.000000000000000      -1.000000000000000       0.000000000000000
         -0.000000000000000       0.000000000000000       1.000000000000000
          0.500000000000000       0.500000000000000       0.500000000000000
# Symm. op. 5       E
          1.000000000000000       0.000000000000000       0.000000000000000
          0.000000000000000       1.000000000000000       0.000000000000000
         -0.000000000000000       0.000000000000000       1.000000000000000
          0.500000000000000       0.500000000000000       0.000000000000000
# Symm. op. 6       I
         -1.000000000000000       0.000000000000000       0.000000000000000
          0.000000000000000      -1.000000000000000       0.000000000000000
          0.000000000000000       0.000000000000000      -1.000000000000000
          0.500000000000000       0.500000000000000      -0.000000000000000
# Symm. op. 7       2
         -1.000000000000000       0.000000000000000       0.000000000000000
          0.000000000000000       1.000000000000000       0.000000000000000
          0.000000000000000       0.000000000000000      -1.000000000000000
         -0.000000000000000       0.000000000000000       0.500000000000000
# Symm. op. 8       c
          1.000000000000000       0.000000000000000       0.000000000000000
          0.000000000000000      -1.000000000000000       0.000000000000000
         -0.000000000000000       0.000000000000000       1.000000000000000
          0.000000000000000      -0.000000000000000       0.500000000000000
%ENDBLOCK symmetry_ops

kpoint_mp_grid :    2   2   2

phonon_kpoint_mp_grid :    1   1   1

%BLOCK external_pressure
   GPA
       120.00000000      0.00000000      0.00000000
       120.00000000      0.00000000
       120.00000000
%ENDBLOCK external_pressure

