# CELL file written 21:16:58 (GMT+1.0) 21st July 2020 from run C2c

%BLOCK lattice_cart
   ANG
       5.18758320474614        0.00000000000000      -0.202045232194761E-01
       0.00000000000000        2.81274563946039        0.00000000000000    
      -3.45760499024664        0.00000000000000        2.94651248669392    
%ENDBLOCK lattice_cart

%BLOCK cell_constraints
      1   2   3
      0   5   0
%ENDBLOCK cell_constraints

%BLOCK positions_frac
   H              0.166666984110602      -0.110216674393867       0.250000169948405
   H              0.333333484493612       0.110218098605661       0.249999978746666
   H              0.500000000000000       0.110217120534000       0.750000000000000
   H              0.500000000000000       0.389782397791154       0.750000000000000
   H              0.833333015889396      -0.110216674393867       0.249999830051594
   H              0.666666515506387       0.110218098605661       0.250000021253334
   H              0.666666984110604       0.389783325606135       0.250000169948405
   H              0.833333484493613       0.610218098605662       0.249999978746666
   H              0.000000000000000       0.610217120534000       0.750000000000000
   H              0.000000000000000       0.889782397791155       0.750000000000000
   H              0.333333015889398       0.389783325606135       0.249999830051594
   H              0.166666515506388       0.610218098605662       0.250000021253334
   H              0.333333015889398       0.610216674393867       0.749999830051594
   H              0.166666515506388       0.389781901394339       0.750000021253334
   H              0.000000000000000       0.389782879466000       0.250000000000000
   H              0.000000000000000       0.110217602208846       0.250000000000000
   H              0.666666984110604       0.610216674393867       0.750000169948406
   H              0.833333484493613       0.389781901394339       0.749999978746666
   H              0.833333015889396       1.110216674393868       0.749999830051594
   H              0.666666515506387       0.889781901394338       0.750000021253334
   H              0.500000000000000       0.889782879466000       0.250000000000000
   H              0.500000000000000       0.610217602208845       0.250000000000000
   H              0.166666984110602       1.110216674393868       0.750000169948406
   H              0.333333484493612       0.889781901394338       0.749999978746666
%ENDBLOCK positions_frac

FIX_COM : true

%BLOCK species_gamma
   radsectesla
   H          267522128.0    
%ENDBLOCK species_gamma

%BLOCK species_pot
   H       0|0.7|2|6|8|10L(qc=10)
%ENDBLOCK species_pot

SYMMETRY_TOL :     0.001000

%BLOCK symmetry_ops
# Symm. op. 1       E
          1.000000000000000       0.000000000000000       0.000000000000000
          0.000000000000000       1.000000000000000       0.000000000000000
         -0.000000000000000       0.000000000000000       1.000000000000000
          0.000000000000000       0.000000000000000       0.000000000000000
# Symm. op. 2       I
         -1.000000000000000       0.000000000000000       0.000000000000000
          0.000000000000000      -1.000000000000000       0.000000000000000
          0.000000000000000       0.000000000000000      -1.000000000000000
         -0.000000000000000      -0.000000000000000      -0.000000000000000
# Symm. op. 3     2_1
         -1.000000000000000       0.000000000000000       0.000000000000000
          0.000000000000000       1.000000000000000       0.000000000000000
          0.000000000000000       0.000000000000000      -1.000000000000000
          0.500000000000000       0.500000000000000       0.500000000000000
# Symm. op. 4       n
          1.000000000000000       0.000000000000000       0.000000000000000
          0.000000000000000      -1.000000000000000       0.000000000000000
         -0.000000000000000       0.000000000000000       1.000000000000000
          0.500000000000000       0.500000000000000       0.500000000000000
# Symm. op. 5       E
          1.000000000000000       0.000000000000000       0.000000000000000
          0.000000000000000       1.000000000000000       0.000000000000000
         -0.000000000000000       0.000000000000000       1.000000000000000
          0.500000000000000       0.500000000000000       0.000000000000000
# Symm. op. 6       I
         -1.000000000000000       0.000000000000000       0.000000000000000
          0.000000000000000      -1.000000000000000       0.000000000000000
          0.000000000000000       0.000000000000000      -1.000000000000000
          0.500000000000000       0.500000000000000      -0.000000000000000
# Symm. op. 7       2
         -1.000000000000000       0.000000000000000       0.000000000000000
          0.000000000000000       1.000000000000000       0.000000000000000
          0.000000000000000       0.000000000000000      -1.000000000000000
         -0.000000000000000       0.000000000000000       0.500000000000000
# Symm. op. 8       c
          1.000000000000000       0.000000000000000       0.000000000000000
          0.000000000000000      -1.000000000000000       0.000000000000000
         -0.000000000000000       0.000000000000000       1.000000000000000
          0.000000000000000      -0.000000000000000       0.500000000000000
%ENDBLOCK symmetry_ops

kpoint_mp_grid :    2   2   2

phonon_kpoint_mp_grid :    1   1   1

%BLOCK external_pressure
   GPA
       180.00000000      0.00000000      0.00000000
       180.00000000      0.00000000
       180.00000000
%ENDBLOCK external_pressure

