# CELL file written 21:25:49 (GMT+1.0) 21st July 2020 from run C2c

%BLOCK lattice_cart
   ANG
       6.76461554036224        0.00000000000000      -0.914560730903646E-02
       0.00000000000000        3.44166038203494        0.00000000000000    
      -4.49974743661952        0.00000000000000        3.58895723309244    
%ENDBLOCK lattice_cart

%BLOCK cell_constraints
      1   2   3
      0   5   0
%ENDBLOCK cell_constraints

%BLOCK positions_frac
   H              0.166666644305207      -0.140654224692957       0.249999972343691
   H              0.333333356360856       0.140654224575468       0.250000027946689
   H              0.500000000000000       0.140654225151096       0.750000000000000
   H              0.500000000000000       0.359345773763698       0.750000000000000
   H              0.833333355694791      -0.140654224692957       0.250000027656308
   H              0.666666643639145       0.140654224575468       0.249999972053311
   H              0.666666644305209       0.359345775307045       0.249999972343691
   H              0.833333356360855       0.640654224575469       0.250000027946689
   H             -0.000000000000000       0.640654225151097       0.750000000000000
   H              0.000000000000000       0.859345773763698       0.750000000000000
   H              0.333333355694792       0.359345775307045       0.250000027656308
   H              0.166666643639144       0.640654224575469       0.249999972053311
   H              0.333333355694792       0.640654224692957       0.750000027656308
   H              0.166666643639144       0.359345775424532       0.749999972053310
   H              0.000000000000000       0.359345774848904       0.250000000000000
   H              0.000000000000000       0.140654226236302       0.250000000000000
   H              0.666666644305209       0.640654224692957       0.749999972343692
   H              0.833333356360855       0.359345775424532       0.750000027946690
   H              0.833333355694791       1.140654224692958       0.750000027656308
   H              0.666666643639145       0.859345775424531       0.749999972053310
   H              0.500000000000000       0.859345774848903       0.250000000000000
   H              0.500000000000000       0.640654226236302       0.250000000000000
   H              0.166666644305207       1.140654224692958       0.749999972343692
   H              0.333333356360856       0.859345775424531       0.750000027946690
%ENDBLOCK positions_frac

FIX_COM : true

%BLOCK species_gamma
   radsectesla
   H          267522128.0    
%ENDBLOCK species_gamma

%BLOCK species_pot
   H       0|0.7|2|6|8|10L(qc=10)
%ENDBLOCK species_pot

SYMMETRY_TOL :     0.001000

%BLOCK symmetry_ops
# Symm. op. 1       E
          1.000000000000000       0.000000000000000       0.000000000000000
          0.000000000000000       1.000000000000000       0.000000000000000
         -0.000000000000000       0.000000000000000       1.000000000000000
          0.000000000000000       0.000000000000000       0.000000000000000
# Symm. op. 2       I
         -1.000000000000000       0.000000000000000       0.000000000000000
          0.000000000000000      -1.000000000000000       0.000000000000000
          0.000000000000000       0.000000000000000      -1.000000000000000
         -0.000000000000000      -0.000000000000000      -0.000000000000000
# Symm. op. 3     2_1
         -1.000000000000000       0.000000000000000       0.000000000000000
          0.000000000000000       1.000000000000000       0.000000000000000
          0.000000000000000       0.000000000000000      -1.000000000000000
          0.500000000000000       0.500000000000000       0.500000000000000
# Symm. op. 4       n
          1.000000000000000       0.000000000000000       0.000000000000000
          0.000000000000000      -1.000000000000000       0.000000000000000
         -0.000000000000000       0.000000000000000       1.000000000000000
          0.500000000000000       0.500000000000000       0.500000000000000
# Symm. op. 5       E
          1.000000000000000       0.000000000000000       0.000000000000000
          0.000000000000000       1.000000000000000       0.000000000000000
         -0.000000000000000       0.000000000000000       1.000000000000000
          0.500000000000000       0.500000000000000       0.000000000000000
# Symm. op. 6       I
         -1.000000000000000       0.000000000000000       0.000000000000000
          0.000000000000000      -1.000000000000000       0.000000000000000
          0.000000000000000       0.000000000000000      -1.000000000000000
          0.500000000000000       0.500000000000000      -0.000000000000000
# Symm. op. 7       2
         -1.000000000000000       0.000000000000000       0.000000000000000
          0.000000000000000       1.000000000000000       0.000000000000000
          0.000000000000000       0.000000000000000      -1.000000000000000
         -0.000000000000000       0.000000000000000       0.500000000000000
# Symm. op. 8       c
          1.000000000000000       0.000000000000000       0.000000000000000
          0.000000000000000      -1.000000000000000       0.000000000000000
         -0.000000000000000       0.000000000000000       1.000000000000000
          0.000000000000000      -0.000000000000000       0.500000000000000
%ENDBLOCK symmetry_ops

kpoint_mp_grid :    2   2   2

phonon_kpoint_mp_grid :    1   1   1

%BLOCK external_pressure
   GPA
        30.00000000      0.00000000      0.00000000
        30.00000000      0.00000000
        30.00000000
%ENDBLOCK external_pressure

