# CELL file written 06:43:17 (GMT+1.0) 15th August 2020 from run Cmca-12

%BLOCK lattice_cart
   ANG
       3.27690354966791      -0.140667923042967E-10  -0.721953602304098E-13
     -0.265932361568917E-10    6.16019091053945      -0.413736723322471E-05
     -0.863898789623614E-12  -0.224416498867110E-05    3.54965305531424    
%ENDBLOCK lattice_cart

%BLOCK positions_frac
   H             -0.000000000020213       0.010630068298978       0.103275084884839
   H              0.000000000025797       0.134339822718552       0.474088146952029
   H             -0.000000000035815       0.233439811792910       0.355557920358972
   H              0.499999999965722       0.233437545213908       0.144442082501977
   H              0.500000000023803       0.134341576461152       0.025901131888472
   H              0.499999999989778       0.010635409186712       0.396726776186276
   H              0.500000000025786       0.266560162799000       0.644442157923805
   H              0.499999999965578       0.365660142695887       0.525911960349269
   H              0.499999999969392       0.489370001551380       0.896724875768089
   H              0.500000000043377       0.766562434685059       0.855557899522965
   H              0.499999999970013       0.865658431136464       0.974098872366857
   H              0.500000000018023       0.989364595897441       0.603273247759282
   H              0.499999999891902       0.733439849954995       0.355557836850795
   H              0.500000000117585       0.634339859781272       0.474088016588024
   H              0.500000000017796       0.510629993844403       0.103275135419439
   H             -0.000000000032931       0.733437530588887       0.144442005249971
   H              0.000000000030277       0.634341558754944       0.025901051009541
   H              0.000000000031550       0.510635481830185       0.396726773696379
   H              0.000000000031871       0.766560183631822       0.644442077481583
   H             -0.000000000028201       0.865660150808809       0.525911878320245
   H              0.000000000022125       0.989369940327242       0.896724878100523
   H              0.000000000026528       0.266562480747679       0.855557999314716
   H             -0.000000000038200       0.365658453983013       0.974098984960883
   H             -0.000000000011550       0.489364513309301       0.603273206545067
%ENDBLOCK positions_frac

FIX_COM : true

%BLOCK species_mass
   AMU
   H          1.007825032    
%ENDBLOCK species_mass

%BLOCK species_gamma
   radsectesla
   H          267522128.0    
%ENDBLOCK species_gamma

%BLOCK species_pot
   H       1|0.6|13|15|17|10(qc=8)
%ENDBLOCK species_pot

SYMMETRY_TOL :     0.001000

%BLOCK symmetry_ops
# Symm. op. 1       E
          1.000000000000000       0.000000000000000       0.000000000000000
          0.000000000000000       1.000000000000000       0.000000000000000
          0.000000000000000       0.000000000000000       1.000000000000000
          0.000000000000000       0.000000000000000       0.000000000000000
%ENDBLOCK symmetry_ops

kpoint_mp_grid :   10  10  10

%BLOCK external_pressure
   GPA
        50.00000000      0.00000000      0.00000000
        50.00000000      0.00000000
        50.00000000
%ENDBLOCK external_pressure

