# CELL file written 16:57:38 (GMT+1.0) 15th August 2020 from run Cmca-12

%BLOCK lattice_cart
   ANG
       2.98733087220425       0.283751982568033E-10   0.916546766412079E-11
     -0.794638462706922E-10    8.85485338014765       0.579626275794413E-02
      0.768216387981163E-11  -0.194577251721744E-02    2.97262689912343    
%ENDBLOCK lattice_cart

%BLOCK positions_frac
   H             -0.000000019899285       0.030057523084414       0.085802509614680
   H             -0.000000019127038       0.136609604255154       0.585803021680520
   H              0.000000018970383       0.196724037044764       0.414196866144008
   H              0.500000018990613       0.196723543522722       0.085804131872549
   H              0.499999980861860       0.136609878927272      -0.085804384903143
   H              0.499999980085629       0.030056955524076       0.414196176787278
   H              0.500000017983931       0.303276344073195       0.585803261811446
   H              0.499999982123886       0.363390487448240       0.414196267155429
   H              0.499999982319238       0.469942853580666       0.914196339458416
   H              0.499999980332955       0.803276508108641       0.914195952271824
   H              0.500000019762376       0.863390308247234       1.085804047834642
   H              0.500000019959082       0.969943109311169       0.585804097021440
   H              0.499999981329820       0.696723532698250       0.414196498253658
   H              0.500000018523213       0.636609428405677       0.585803652844405
   H              0.500000017732131       0.530056798594487       0.085803993208169
   H             -0.000000018672702       0.696723874738753       0.085803312801466
   H              0.000000018528338       0.636609514125571      -0.085803053465502
   H              0.000000017731878       0.530057007764169       0.414196487803002
   H             -0.000000019671440       0.803275864564488       0.585802774440427
   H              0.000000019769650       0.863390622352931       0.414197649414630
   H              0.000000019946663       0.969942805306283       0.914197280535129
   H              0.000000017981987       0.303276201461751       0.914196637959435
   H             -0.000000017883865       0.363390454307104       1.085803317332121
   H             -0.000000017679320       0.469942742552968       0.585803162123971
%ENDBLOCK positions_frac

FIX_COM : true

%BLOCK species_mass
   AMU
   H          1.007825032    
%ENDBLOCK species_mass

%BLOCK species_gamma
   radsectesla
   H          267522128.0    
%ENDBLOCK species_gamma

%BLOCK species_pot
   H       1|0.6|13|15|17|10(qc=8)
%ENDBLOCK species_pot

SYMMETRY_TOL :     0.001000

%BLOCK symmetry_ops
# Symm. op. 1       E
          1.000000000000000       0.000000000000000       0.000000000000000
          0.000000000000000       1.000000000000000       0.000000000000000
          0.000000000000000       0.000000000000000       1.000000000000000
          0.000000000000000       0.000000000000000       0.000000000000000
%ENDBLOCK symmetry_ops

kpoint_mp_grid :   10  10  10

%BLOCK external_pressure
   GPA
        40.00000000      0.00000000      0.00000000
        40.00000000      0.00000000
        40.00000000
%ENDBLOCK external_pressure

