# CELL file written 22:48:34 (GMT+1.0) 13th August 2020 from run Cmca-12

%BLOCK lattice_cart
   ANG
       2.64253596429071      -0.769489886384056E-11  -0.221580385548054E-11
     -0.144118154308296E-10    4.90192582893122      -0.989514363849428E-08
     -0.287384329432561E-11  -0.596285769262464E-08    2.95132760331103    
%ENDBLOCK lattice_cart

%BLOCK positions_frac
   H             -0.000000000000773       0.002154263171645       0.130407650176438
   H             -0.000000000002246       0.132364117084025       0.454982787723765
   H              0.000000000012527       0.262952941428535       0.319288356285305
   H              0.499999999967840       0.262952942795017       0.180711644833236
   H              0.500000000025564       0.132364118201656       0.045017218318898
   H              0.500000000009096       0.002154265771377       0.369592352856992
   H              0.499999999991068       0.237047059976382       0.680711643977289
   H              0.499999999992925       0.367635884542274       0.545017218622756
   H              0.500000000000295       0.497845736255694       0.869592352586026
   H              0.500000000001687       0.737047058450370       0.819288356682519
   H              0.499999999996657       0.867635883983161       0.954982781236963
   H              0.500000000008346       0.997845734686927       0.630407646726641
   H              0.500000000005071       0.762952939101899       0.319288353460635
   H              0.499999999998413       0.632364113209202       0.454982780659891
   H              0.500000000002688       0.502154263511385       0.130407646490132
   H             -0.000000000006294       0.762952937054656       0.180711641387645
   H             -0.000000000004105       0.632364113150369       0.045017217896184
   H              0.000000000016887       0.502154265375340       0.369592352068734
   H              0.000000000012658       0.737047059907573       0.680711641418544
   H             -0.000000000004744       0.867635884967015       0.545017214863154
   H             -0.000000000003926       0.997845735111767       0.869592353794070
   H             -0.000000000000847       0.237047060199118       0.819288359639539
   H             -0.000000000007465       0.367635886696581       0.954982781899321
   H             -0.000000000011322       0.497845735368031       0.630407646395323
%ENDBLOCK positions_frac

FIX_COM : true

%BLOCK species_mass
   AMU
   H          1.007825032    
%ENDBLOCK species_mass

%BLOCK species_gamma
   radsectesla
   H          267522128.0    
%ENDBLOCK species_gamma

%BLOCK species_pot
   H       1|0.6|13|15|17|10(qc=8)
%ENDBLOCK species_pot

SYMMETRY_TOL :     0.001000

%BLOCK symmetry_ops
# Symm. op. 1       E
          1.000000000000000       0.000000000000000       0.000000000000000
          0.000000000000000       1.000000000000000       0.000000000000000
          0.000000000000000       0.000000000000000       1.000000000000000
          0.000000000000000       0.000000000000000       0.000000000000000
%ENDBLOCK symmetry_ops

kpoint_mp_grid :   10  10  10

%BLOCK external_pressure
   GPA
       240.00000000      0.00000000      0.00000000
       240.00000000      0.00000000
       240.00000000
%ENDBLOCK external_pressure

