# CELL file written 02:37:36 (GMT+1.0) 14th August 2020 from run Cmca-12

%BLOCK lattice_cart
   ANG
       2.82002609102129      -0.536204895850368E-11   0.165413087390798E-11
     -0.998414650958586E-11    5.22745289741745      -0.609293457515496E-08
      0.143466181557661E-11  -0.373642117098289E-08    3.13641450627894    
%ENDBLOCK lattice_cart

%BLOCK positions_frac
   H             -0.000000000006627       0.000336915004879       0.121484479769675
   H             -0.000000000000819       0.133553301898509       0.455806222925259
   H             -0.000000000009220       0.254408434221440       0.326237027974903
   H              0.500000000012652       0.254408435890149       0.173762970191329
   H              0.499999999988341       0.133553308461942       0.044193770465251
   H              0.500000000018509       0.000336916044163       0.378515524313574
   H              0.499999999984522       0.245591561161556       0.673762970183072
   H              0.500000000010820       0.366446699085918       0.544193779322920
   H              0.500000000012591       0.499663083689282       0.878515529440340
   H              0.500000000016201       0.745591565795491       0.826237028108793
   H              0.499999999988106       0.866446702534776       0.955806225875911
   H              0.499999999983118       0.999663078853225       0.621484464971432
   H              0.499999999968575       0.754408433071070       0.326237038855448
   H              0.500000000036126       0.633553312427423       0.455806216169255
   H              0.499999999994446       0.500336910704396       0.121484477561087
   H             -0.000000000004970       0.754408432883255       0.173762980560594
   H             -0.000000000002731       0.633553303347448       0.044193773281447
   H              0.000000000003163       0.500336921839562       0.378515515939986
   H              0.000000000019381       0.745591561798552       0.673762961301899
   H             -0.000000000017935       0.866446701222771       0.544193776132047
   H             -0.000000000004214       0.999663082613146       0.878515535640428
   H             -0.000000000008257       0.245591564919028       0.826237037851891
   H             -0.000000000000180       0.366446692543385       0.955806221124335
   H              0.000000000018399       0.499663079988633       0.621484472039122
%ENDBLOCK positions_frac

FIX_COM : true

%BLOCK species_mass
   AMU
   H          1.007825032    
%ENDBLOCK species_mass

%BLOCK species_gamma
   radsectesla
   H          267522128.0    
%ENDBLOCK species_gamma

%BLOCK species_pot
   H       1|0.6|13|15|17|10(qc=8)
%ENDBLOCK species_pot

SYMMETRY_TOL :     0.001000

%BLOCK symmetry_ops
# Symm. op. 1       E
          1.000000000000000       0.000000000000000       0.000000000000000
          0.000000000000000       1.000000000000000       0.000000000000000
          0.000000000000000       0.000000000000000       1.000000000000000
          0.000000000000000       0.000000000000000       0.000000000000000
%ENDBLOCK symmetry_ops

kpoint_mp_grid :   10  10  10

%BLOCK external_pressure
   GPA
       150.00000000      0.00000000      0.00000000
       150.00000000      0.00000000
       150.00000000
%ENDBLOCK external_pressure

