# CELL file written 19:37:45 (GMT+1.0) 15th August 2020 from run Cmca-12

%BLOCK lattice_cart
   ANG
       3.09055062990028       0.348722184165775E-10  -0.672105466405467E-11
     -0.657747695647250E-10    9.15160075188526       0.599028852121635E-02
     -0.817930179289804E-11  -0.201184525456578E-02    3.07345569850249    
%ENDBLOCK lattice_cart

%BLOCK positions_frac
   H             -0.000000103995538       0.029126587153316       0.083325557494278
   H             -0.000000102146302       0.137540095947253       0.583325573552082
   H              0.000000101848136       0.195793339711144       0.416674435459180
   H              0.500000101804798       0.195793338033930       0.083325591479081
   H              0.499999897889506       0.137540089293628      -0.083325566293824
   H              0.499999896049819       0.029126563630821       0.416674323403076
   H              0.500000099464709       0.304206783748650       0.583325621725876
   H              0.499999900738802       0.362460031185581       0.416674488528395
   H              0.499999901449681       0.470873422929534       0.916674436879622
   H              0.499999896676078       0.804206643389715       0.916674443011603
   H              0.500000103538580       0.862459869825328       1.083325651371446
   H              0.500000104079368       0.970873354062131       0.583325620383962
   H              0.499999898952981       0.695793243308743       0.416674488016549
   H              0.500000100723129       0.637539991798777       0.583325531654947
   H              0.500000098634178       0.529126667176215       0.083325540919842
   H             -0.000000101015407       0.695793255109855       0.083325529657726
   H              0.000000100712235       0.637539979462279      -0.083325567976447
   H              0.000000098599249       0.529126690424790       0.416674521879023
   H             -0.000000103444312       0.804206628600309       0.583325526580886
   H              0.000000103626633       0.862459860787306       0.416674371437227
   H              0.000000104119425       0.970873341891509       0.916674476442401
   H              0.000000099446867       0.304206783052468       0.916674398647822
   H             -0.000000099241163       0.362460039261618       1.083325496971842
   H             -0.000000098511468       0.470873400215076       0.583325508773402
%ENDBLOCK positions_frac

FIX_COM : true

%BLOCK species_mass
   AMU
   H          1.007825032    
%ENDBLOCK species_mass

%BLOCK species_gamma
   radsectesla
   H          267522128.0    
%ENDBLOCK species_gamma

%BLOCK species_pot
   H       1|0.6|13|15|17|10(qc=8)
%ENDBLOCK species_pot

SYMMETRY_TOL :     0.001000

%BLOCK symmetry_ops
# Symm. op. 1       E
          1.000000000000000       0.000000000000000       0.000000000000000
          0.000000000000000       1.000000000000000       0.000000000000000
          0.000000000000000       0.000000000000000       1.000000000000000
          0.000000000000000       0.000000000000000       0.000000000000000
%ENDBLOCK symmetry_ops

kpoint_mp_grid :   10  10  10

%BLOCK external_pressure
   GPA
        30.00000000      0.00000000      0.00000000
        30.00000000      0.00000000
        30.00000000
%ENDBLOCK external_pressure

