# CELL file written 21:41:11 (GMT+1.0) 13th August 2020 from run Cmca-12

%BLOCK lattice_cart
   ANG
       2.59862337284513       0.350374830427072E-11  -0.428541954728097E-11
      0.638546897470178E-11    4.82423513295004      -0.144900942089478E-08
     -0.517168638572696E-11  -0.873767829120585E-09    2.90627009532360    
%ENDBLOCK lattice_cart

%BLOCK positions_frac
   H             -0.000000000007150       0.003014635485160       0.132680485007860
   H              0.000000000011932       0.132113037503979       0.455113495495827
   H             -0.000000000014952       0.265143125123207       0.317835673596974
   H              0.499999999994043       0.265143129477181       0.182164330916944
   H              0.500000000016956       0.132113040035238       0.044886498455258
   H              0.499999999989749       0.003014637473794       0.367319517015038
   H              0.500000000009142       0.234856872477335       0.682164330412526
   H              0.500000000002150       0.367886956841959       0.544886491708335
   H              0.499999999995837       0.496985369313706       0.867319514280356
   H              0.499999999986708       0.734856879424320       0.817835670179399
   H              0.500000000001847       0.867886958492097       0.955113504825602
   H              0.500000000009123       0.996985365570273       0.632680489679369
   H              0.499999999999717       0.765143129687838       0.317835676072413
   H              0.500000000004146       0.632113045820752       0.455113501060480
   H              0.499999999989070       0.503014633256756       0.132680479024417
   H             -0.000000000004031       0.765143128462349       0.182164329030785
   H              0.000000000003741       0.632113045721390       0.044886494240924
   H              0.000000000027112       0.503014638418135       0.367319513557686
   H             -0.000000000002330       0.734856867420845       0.682164329585850
   H              0.000000000004316       0.867886957173596       0.544886503895522
   H              0.000000000002348       0.996985364874735       0.867319513759759
   H              0.000000000003397       0.234856868296647       0.817835672101088
   H             -0.000000000001327       0.367886953624844       0.955113507120640
   H             -0.000000000021542       0.496985360023862       0.632680478976947
%ENDBLOCK positions_frac

FIX_COM : true

%BLOCK species_mass
   AMU
   H          1.007825032    
%ENDBLOCK species_mass

%BLOCK species_gamma
   radsectesla
   H          267522128.0    
%ENDBLOCK species_gamma

%BLOCK species_pot
   H       1|0.6|13|15|17|10(qc=8)
%ENDBLOCK species_pot

SYMMETRY_TOL :     0.001000

%BLOCK symmetry_ops
# Symm. op. 1       E
          1.000000000000000       0.000000000000000       0.000000000000000
          0.000000000000000       1.000000000000000       0.000000000000000
          0.000000000000000       0.000000000000000       1.000000000000000
          0.000000000000000       0.000000000000000       0.000000000000000
%ENDBLOCK symmetry_ops

kpoint_mp_grid :   10  10  10

%BLOCK external_pressure
   GPA
       270.00000000      0.00000000      0.00000000
       270.00000000      0.00000000
       270.00000000
%ENDBLOCK external_pressure

