# CELL file written 03:39:15 (GMT+1.0) 15th August 2020 from run Cmca-12

%BLOCK lattice_cart
   ANG
       3.19229071938100       0.959617730277455E-11   0.125478149789664E-11
      0.176267624671379E-10    5.97161747716406       0.925966543167312E-08
      0.845486404211880E-12   0.543567841880708E-08    3.49448039173981    
%ENDBLOCK lattice_cart

%BLOCK positions_frac
   H              0.000000000028540       0.006309364353770       0.106400043671278
   H             -0.000000000027554       0.134976266138036       0.467052531489876
   H              0.000000000038694       0.237743725515018       0.347290313666976
   H              0.500000000048233       0.237743724736131       0.152709684883812
   H              0.499999999982631       0.134976267928873       0.032947471024397
   H              0.499999999994469       0.006309369616249       0.393599954556133
   H              0.499999999993716       0.262256282316860       0.652709669417108
   H              0.500000000009258       0.365023723984644       0.532947472681881
   H              0.499999999984690       0.493690637857932       0.893599957565515
   H              0.499999999956808       0.762256280106932       0.847290325766632
   H              0.500000000035808       0.865023730269823       0.967052531843561
   H              0.499999999966042       0.993690636092792       0.606400047043970
   H              0.499999999945175       0.737743720402883       0.347290317121272
   H              0.500000000052268       0.634976263700198       0.467052529190851
   H              0.500000000025235       0.506309367936646       0.106400029656708
   H             -0.000000000049729       0.737743726722003       0.152709696308636
   H              0.000000000030274       0.634976266538915       0.032947470167530
   H              0.000000000080259       0.506309364434704       0.393599930371894
   H             -0.000000000013080       0.762256266515312       0.652709688272152
   H             -0.000000000009496       0.865023734660373       0.532947469663838
   H             -0.000000000017134       0.993690636410151       0.893599954357023
   H              0.000000000042256       0.262256272925715       0.847290311667434
   H             -0.000000000029389       0.365023738512087       0.967052536269649
   H             -0.000000000067980       0.493690632323950       0.606400063341871
%ENDBLOCK positions_frac

FIX_COM : true

%BLOCK species_mass
   AMU
   H          1.007825032    
%ENDBLOCK species_mass

%BLOCK species_gamma
   radsectesla
   H          267522128.0    
%ENDBLOCK species_gamma

%BLOCK species_pot
   H       1|0.6|13|15|17|10(qc=8)
%ENDBLOCK species_pot

SYMMETRY_TOL :     0.001000

%BLOCK symmetry_ops
# Symm. op. 1       E
          1.000000000000000       0.000000000000000       0.000000000000000
          0.000000000000000       1.000000000000000       0.000000000000000
          0.000000000000000       0.000000000000000       1.000000000000000
          0.000000000000000       0.000000000000000       0.000000000000000
%ENDBLOCK symmetry_ops

kpoint_mp_grid :   10  10  10

%BLOCK external_pressure
   GPA
        60.00000000      0.00000000      0.00000000
        60.00000000      0.00000000
        60.00000000
%ENDBLOCK external_pressure

