# CELL file written 00:02:11 (GMT+1.0) 14th August 2020 from run Cmca-12

%BLOCK lattice_cart
   ANG
       2.69253652031256      -0.199844528092298E-12   0.215312928659494E-11
     -0.544227480027331E-12    4.99173131786992      -0.427220459021941E-08
      0.197620452520013E-11  -0.266420663229532E-08    3.00312369959072    
%ENDBLOCK lattice_cart

%BLOCK positions_frac
   H             -0.000000000011900       0.001370778258460       0.127831178427226
   H              0.000000000011341       0.132677304155483       0.454991384408192
   H             -0.000000000008847       0.260494170221565       0.321084660495592
   H              0.500000000003277       0.260494173074870       0.178915355992855
   H              0.499999999994601       0.132677313130054       0.045008619330235
   H              0.499999999977315       0.001370781206734       0.372168821157481
   H              0.500000000000416       0.239505824813787       0.678915353501930
   H              0.499999999998307       0.367322690051620       0.545008620866504
   H              0.500000000007094       0.498629220106679       0.872168821296552
   H              0.499999999991005       0.739505831145184       0.821084647994956
   H              0.500000000001495       0.867322691886288       0.954991382261883
   H              0.500000000033204       0.998629218377874       0.627831176793404
   H              0.500000000000714       0.760494169382826       0.321084645541793
   H              0.499999999987858       0.632677312550858       0.454991380366944
   H              0.500000000003686       0.501370779947697       0.127831178959583
   H             -0.000000000001830       0.760494168349090       0.178915349025929
   H             -0.000000000000818       0.632677311846514       0.045008600559403
   H              0.000000000003445       0.501370787939141       0.372168821161212
   H              0.000000000002763       0.739505826429843       0.678915339093892
   H              0.000000000008044       0.867322692957788       0.545008619994231
   H              0.000000000005981       0.998629220849334       0.872168818839476
   H             -0.000000000026460       0.239505833236872       0.821084653897738
   H              0.000000000017487       0.367322690662050       0.954991398322038
   H              0.000000000001822       0.498629209419390       0.627831171710953
%ENDBLOCK positions_frac

FIX_COM : true

%BLOCK species_mass
   AMU
   H          1.007825032    
%ENDBLOCK species_mass

%BLOCK species_gamma
   radsectesla
   H          267522128.0    
%ENDBLOCK species_gamma

%BLOCK species_pot
   H       1|0.6|13|15|17|10(qc=8)
%ENDBLOCK species_pot

SYMMETRY_TOL :     0.001000

%BLOCK symmetry_ops
# Symm. op. 1       E
          1.000000000000000       0.000000000000000       0.000000000000000
          0.000000000000000       1.000000000000000       0.000000000000000
          0.000000000000000       0.000000000000000       1.000000000000000
          0.000000000000000       0.000000000000000       0.000000000000000
%ENDBLOCK symmetry_ops

kpoint_mp_grid :   10  10  10

%BLOCK external_pressure
   GPA
       210.00000000      0.00000000      0.00000000
       210.00000000      0.00000000
       210.00000000
%ENDBLOCK external_pressure

