# CELL file written 08:50:15 (GMT+1.0) 27th July 2020 from run Pbcn

%BLOCK lattice_cart
   ANG
       2.91622873529642      -0.544341851716891E-34    0.00000000000000    
     -0.946925143213705E-34    5.07252026029403        0.00000000000000    
       0.00000000000000        0.00000000000000        5.20409776835193    
%ENDBLOCK lattice_cart

%BLOCK cell_constraints
      1   2   3
      0   0   0
%ENDBLOCK cell_constraints

%BLOCK positions_frac
   H              0.403119472505711       0.114084079866618       0.009671807391695
   H              0.579391175411155       0.212845547080289       0.025264721682959
   H              0.575726250356738       0.555732845089594       0.005105709044789
   H              0.138427945764444       0.172056012208440       0.248515865842547
   H              0.311976549757361       0.346219731859098       0.243725012869778
   H              0.173080370794023       0.483873850222543       0.250075264676178
   H              0.173080370794023       0.516126149777457       0.750075264676178
   H              0.311976549757361       0.653780268140902       0.743725012869777
   H              0.138427945764444       0.827943987791560       0.748515865842547
   H              0.575726250356738       0.444267154910406       0.505105709044790
   H              0.579391175411155       0.787154452919712       0.525264721682959
   H              0.403119472505711       0.885915920133382       0.509671807391696
   H              0.326919629205978       0.983873850222543       0.250075264676178
   H              0.188023450242640       0.846219731859097       0.243725012869778
   H              0.361572054235555       0.672056012208440       0.248515865842547
   H             -0.075726250356739       0.055732845089595       0.005105709044789
   H             -0.079391175411154       0.712845547080288       0.025264721682959
   H              0.096880527494289       0.614084079866618       0.009671807391695
   H              0.673080370794023       0.983873850222543       0.249924735323822
   H              0.811976549757361       0.846219731859097       0.256274987130222
   H              0.638427945764444       0.672056012208440       0.251484134157453
   H              1.075726250356738       0.055732845089595       0.494894290955210
   H              1.079391175411154       0.712845547080288       0.474735278317041
   H              0.903119472505713       0.614084079866618       0.490328192608305
   H              0.826919629205978       0.516126149777457       0.749924735323822
   H              0.688023450242639       0.653780268140902       0.756274987130223
   H              0.861572054235556       0.827943987791560       0.751484134157453
   H              0.424273749643261       0.444267154910406      -0.005105709044789
   H              0.420608824588845       0.787154452919712       0.974735278317041
   H              0.596880527494287       0.885915920133382       0.990328192608304
   H              0.826919629205978       0.483873850222543       0.249924735323822
   H              0.688023450242639       0.346219731859098       0.256274987130222
   H              0.861572054235556       0.172056012208440       0.251484134157453
   H              0.424273749643261       0.555732845089594       0.494894290955210
   H              0.420608824588845       0.212845547080289       0.474735278317041
   H              0.596880527494287       0.114084079866618       0.490328192608305
   H              0.673080370794023       0.016126149777457       0.749924735323822
   H              0.811976549757361       0.153780268140902       0.756274987130223
   H              0.638427945764444       0.327943987791560       0.751484134157453
   H              0.075726250356739      -0.055732845089595      -0.005105709044789
   H              1.079391175411154       0.287154452919711       0.974735278317041
   H              0.903119472505713       0.385915920133384       0.990328192608304
   H              0.326919629205978       0.016126149777457       0.750075264676178
   H              0.188023450242640       0.153780268140902       0.743725012869777
   H              0.361572054235555       0.327943987791560       0.748515865842547
   H              0.924273749643262      -0.055732845089595       0.505105709044790
   H             -0.079391175411154       0.287154452919711       0.525264721682959
   H              0.096880527494289       0.385915920133384       0.509671807391696
%ENDBLOCK positions_frac

FIX_COM : true

%BLOCK species_mass
   AMU
   H          1.007825032    
%ENDBLOCK species_mass

%BLOCK species_gamma
   radsectesla
   H          267522128.0    
%ENDBLOCK species_gamma

%BLOCK species_pot
   H       0|0.7|2|6|8|10L(qc=10)
%ENDBLOCK species_pot

SYMMETRY_TOL :     0.001000

%BLOCK symmetry_ops
# Symm. op. 1       E
          1.000000000000000       0.000000000000000       0.000000000000000
          0.000000000000000       1.000000000000000       0.000000000000000
          0.000000000000000       0.000000000000000       1.000000000000000
          0.000000000000000       0.000000000000000       0.000000000000000
# Symm. op. 2       I
         -1.000000000000000       0.000000000000000       0.000000000000000
          0.000000000000000      -1.000000000000000       0.000000000000000
          0.000000000000000       0.000000000000000      -1.000000000000000
         -0.000000000000000      -0.000000000000000       0.000000000000000
# Symm. op. 3     2_1
         -1.000000000000000       0.000000000000000       0.000000000000000
          0.000000000000000      -1.000000000000000       0.000000000000000
          0.000000000000000       0.000000000000000       1.000000000000000
          0.500000000000000       0.500000000000000       0.500000000000000
# Symm. op. 4       n
          1.000000000000000       0.000000000000000       0.000000000000000
          0.000000000000000       1.000000000000000       0.000000000000000
          0.000000000000000       0.000000000000000      -1.000000000000000
          0.500000000000000       0.500000000000000       0.500000000000000
# Symm. op. 5     2_1
          1.000000000000000       0.000000000000000       0.000000000000000
          0.000000000000000      -1.000000000000000       0.000000000000000
          0.000000000000000       0.000000000000000      -1.000000000000000
          0.500000000000000       0.500000000000000       0.000000000000000
# Symm. op. 6       b
         -1.000000000000000       0.000000000000000       0.000000000000000
          0.000000000000000       1.000000000000000       0.000000000000000
          0.000000000000000       0.000000000000000       1.000000000000000
          0.500000000000000       0.500000000000000       0.000000000000000
# Symm. op. 7       2
         -1.000000000000000       0.000000000000000       0.000000000000000
          0.000000000000000       1.000000000000000       0.000000000000000
          0.000000000000000       0.000000000000000      -1.000000000000000
          0.000000000000000       0.000000000000000       0.500000000000000
# Symm. op. 8       c
          1.000000000000000       0.000000000000000       0.000000000000000
          0.000000000000000      -1.000000000000000       0.000000000000000
          0.000000000000000       0.000000000000000       1.000000000000000
          0.000000000000000      -0.000000000000000       0.500000000000000
%ENDBLOCK symmetry_ops

kpoint_mp_grid :    5   5   5

phonon_kpoint_mp_grid :    8   6   4

%BLOCK external_pressure
   GPA
       240.00000000      0.00000000      0.00000000
       240.00000000      0.00000000
       240.00000000
%ENDBLOCK external_pressure

