# CELL file written 10:22:49 (GMT+1.0) 27th July 2020 from run Pbcn

%BLOCK lattice_cart
   ANG
       2.97115020550953      -0.728154782732153E-34    0.00000000000000    
     -0.126684651602451E-33    5.16701499212001        0.00000000000000    
       0.00000000000000        0.00000000000000        5.29384068814963    
%ENDBLOCK lattice_cart

%BLOCK cell_constraints
      1   2   3
      0   0   0
%ENDBLOCK cell_constraints

%BLOCK positions_frac
   H              0.402230462286289       0.115319971648570       0.009509308097972
   H              0.577534555318335       0.210702991094304       0.029371515213675
   H              0.573241743989075       0.555386069748151       0.005021895986621
   H              0.134361403573351       0.171828239571984       0.248205243893967
   H              0.309957870557460       0.348512438891484       0.242828521931187
   H              0.175318750629706       0.482097447653253       0.250005454798929
   H              0.175318750629706       0.517902552346747       0.750005454798929
   H              0.309957870557460       0.651487561108516       0.742828521931186
   H              0.134361403573351       0.828171760428015       0.748205243893967
   H              0.573241743989075       0.444613930251849       0.505021895986622
   H              0.577534555318335       0.789297008905697       0.529371515213675
   H              0.402230462286289       0.884680028351430       0.509509308097973
   H              0.324681249370295       0.982097447653253       0.250005454798929
   H              0.190042129442541       0.848512438891483       0.242828521931187
   H              0.365638596426648       0.671828239571985       0.248205243893967
   H             -0.073241743989076       0.055386069748152       0.005021895986621
   H             -0.077534555318334       0.710702991094303       0.029371515213675
   H              0.097769537713711       0.615319971648570       0.009509308097972
   H              0.675318750629706       0.982097447653253       0.249994545201071
   H              0.809957870557460       0.848512438891483       0.257171478068813
   H              0.634361403573351       0.671828239571985       0.251794756106033
   H              1.073241743989076       0.055386069748152       0.494978104013378
   H              1.077534555318334       0.710702991094303       0.470628484786325
   H              0.902230462286291       0.615319971648570       0.490490691902028
   H              0.824681249370295       0.517902552346747       0.749994545201071
   H              0.690042129442540       0.651487561108516       0.757171478068814
   H              0.865638596426649       0.828171760428015       0.751794756106033
   H              0.426758256010924       0.444613930251849      -0.005021895986621
   H              0.422465444681665       0.789297008905697       0.970628484786325
   H              0.597769537713709       0.884680028351430       0.990490691902027
   H              0.824681249370295       0.482097447653253       0.249994545201071
   H              0.690042129442540       0.348512438891484       0.257171478068813
   H              0.865638596426649       0.171828239571984       0.251794756106033
   H              0.426758256010924       0.555386069748151       0.494978104013378
   H              0.422465444681665       0.210702991094304       0.470628484786325
   H              0.597769537713709       0.115319971648570       0.490490691902028
   H              0.675318750629706       0.017902552346747       0.749994545201071
   H              0.809957870557460       0.151487561108516       0.757171478068814
   H              0.634361403573351       0.328171760428016       0.751794756106033
   H              0.073241743989076      -0.055386069748152      -0.005021895986621
   H              1.077534555318334       0.289297008905696       0.970628484786325
   H              0.902230462286291       0.384680028351432       0.990490691902027
   H              0.324681249370295       0.017902552346747       0.750005454798929
   H              0.190042129442541       0.151487561108516       0.742828521931186
   H              0.365638596426648       0.328171760428016       0.748205243893967
   H              0.926758256010925      -0.055386069748152       0.505021895986622
   H             -0.077534555318334       0.289297008905696       0.529371515213675
   H              0.097769537713711       0.384680028351432       0.509509308097973
%ENDBLOCK positions_frac

FIX_COM : true

%BLOCK species_mass
   AMU
   H          1.007825032    
%ENDBLOCK species_mass

%BLOCK species_gamma
   radsectesla
   H          267522128.0    
%ENDBLOCK species_gamma

%BLOCK species_pot
   H       0|0.7|2|6|8|10L(qc=10)
%ENDBLOCK species_pot

SYMMETRY_TOL :     0.001000

%BLOCK symmetry_ops
# Symm. op. 1       E
          1.000000000000000       0.000000000000000       0.000000000000000
          0.000000000000000       1.000000000000000       0.000000000000000
          0.000000000000000       0.000000000000000       1.000000000000000
          0.000000000000000       0.000000000000000       0.000000000000000
# Symm. op. 2       I
         -1.000000000000000       0.000000000000000       0.000000000000000
          0.000000000000000      -1.000000000000000       0.000000000000000
          0.000000000000000       0.000000000000000      -1.000000000000000
         -0.000000000000000      -0.000000000000000       0.000000000000000
# Symm. op. 3     2_1
         -1.000000000000000       0.000000000000000       0.000000000000000
          0.000000000000000      -1.000000000000000       0.000000000000000
          0.000000000000000       0.000000000000000       1.000000000000000
          0.500000000000000       0.500000000000000       0.500000000000000
# Symm. op. 4       n
          1.000000000000000       0.000000000000000       0.000000000000000
          0.000000000000000       1.000000000000000       0.000000000000000
          0.000000000000000       0.000000000000000      -1.000000000000000
          0.500000000000000       0.500000000000000       0.500000000000000
# Symm. op. 5     2_1
          1.000000000000000       0.000000000000000       0.000000000000000
          0.000000000000000      -1.000000000000000       0.000000000000000
          0.000000000000000       0.000000000000000      -1.000000000000000
          0.500000000000000       0.500000000000000       0.000000000000000
# Symm. op. 6       b
         -1.000000000000000       0.000000000000000       0.000000000000000
          0.000000000000000       1.000000000000000       0.000000000000000
          0.000000000000000       0.000000000000000       1.000000000000000
          0.500000000000000       0.500000000000000       0.000000000000000
# Symm. op. 7       2
         -1.000000000000000       0.000000000000000       0.000000000000000
          0.000000000000000       1.000000000000000       0.000000000000000
          0.000000000000000       0.000000000000000      -1.000000000000000
          0.000000000000000       0.000000000000000       0.500000000000000
# Symm. op. 8       c
          1.000000000000000       0.000000000000000       0.000000000000000
          0.000000000000000      -1.000000000000000       0.000000000000000
          0.000000000000000       0.000000000000000       1.000000000000000
          0.000000000000000      -0.000000000000000       0.500000000000000
%ENDBLOCK symmetry_ops

kpoint_mp_grid :    5   5   5

phonon_kpoint_mp_grid :    8   6   4

%BLOCK external_pressure
   GPA
       210.00000000      0.00000000      0.00000000
       210.00000000      0.00000000
       210.00000000
%ENDBLOCK external_pressure

