# CELL file written 16:13:32 (GMT+1.0) 26th July 2020 from run Pbcn

%BLOCK lattice_cart
   ANG
       2.82886049540169       0.752568374748722E-35    0.00000000000000    
      0.130899370961722E-34    4.92043300113784        0.00000000000000    
       0.00000000000000        0.00000000000000        5.05025674759870    
%ENDBLOCK lattice_cart

%BLOCK cell_constraints
      1   2   3
      0   0   0
%ENDBLOCK cell_constraints

%BLOCK positions_frac
   H              0.405637413333756       0.112353577493167       0.010179337125656
   H              0.582530897000784       0.216660250076921       0.018283363396148
   H              0.580456709095545       0.556003634354900       0.004407731474221
   H              0.145134484885804       0.171923213848979       0.249067728731366
   H              0.315796248590573       0.342496314767400       0.245478148915016
   H              0.169922799179219       0.486992227879327       0.250546368023292
   H              0.169922799179219       0.513007772120673       0.750546368023292
   H              0.315796248590573       0.657503685232600       0.745478148915016
   H              0.145134484885804       0.828076786151021       0.749067728731366
   H              0.580456709095545       0.443996365645100       0.504407731474221
   H              0.582530897000784       0.783339749923079       0.518283363396148
   H              0.405637413333756       0.887646422506832       0.510179337125656
   H              0.330077200820782       0.986992227879327       0.250546368023292
   H              0.184203751409427       0.842496314767399       0.245478148915016
   H              0.354865515114196       0.671923213848979       0.249067728731366
   H             -0.080456709095546       0.056003634354901       0.004407731474221
   H             -0.082530897000784       0.716660250076921       0.018283363396148
   H              0.094362586666244       0.612353577493168       0.010179337125656
   H              0.669922799179219       0.986992227879327       0.249453631976708
   H              0.815796248590573       0.842496314767399       0.254521851084984
   H              0.645134484885804       0.671923213848979       0.250932271268634
   H              1.080456709095546       0.056003634354901       0.495592268525779
   H              1.082530897000784       0.716660250076921       0.481716636603852
   H              0.905637413333757       0.612353577493168       0.489820662874344
   H              0.830077200820782       0.513007772120673       0.749453631976708
   H              0.684203751409427       0.657503685232600       0.754521851084984
   H              0.854865515114196       0.828076786151021       0.750932271268634
   H              0.419543290904454       0.443996365645100      -0.004407731474221
   H              0.417469102999216       0.783339749923079       0.981716636603852
   H              0.594362586666243       0.887646422506832       0.989820662874344
   H              0.830077200820782       0.486992227879327       0.249453631976708
   H              0.684203751409427       0.342496314767400       0.254521851084984
   H              0.854865515114196       0.171923213848979       0.250932271268634
   H              0.419543290904454       0.556003634354900       0.495592268525779
   H              0.417469102999216       0.216660250076921       0.481716636603852
   H              0.594362586666243       0.112353577493167       0.489820662874344
   H              0.669922799179219       0.013007772120673       0.749453631976708
   H              0.815796248590573       0.157503685232600       0.754521851084984
   H              0.645134484885804       0.328076786151021       0.750932271268634
   H              0.080456709095546      -0.056003634354901      -0.004407731474221
   H              1.082530897000784       0.283339749923079       0.981716636603852
   H              0.905637413333757       0.387646422506834       0.989820662874344
   H              0.330077200820782       0.013007772120673       0.750546368023292
   H              0.184203751409427       0.157503685232600       0.745478148915016
   H              0.354865515114196       0.328076786151021       0.749067728731366
   H              0.919543290904455      -0.056003634354901       0.504407731474221
   H             -0.082530897000784       0.283339749923079       0.518283363396148
   H              0.094362586666244       0.387646422506834       0.510179337125656
%ENDBLOCK positions_frac

FIX_COM : true

%BLOCK species_mass
   AMU
   H          1.007825032    
%ENDBLOCK species_mass

%BLOCK species_gamma
   radsectesla
   H          267522128.0    
%ENDBLOCK species_gamma

%BLOCK species_pot
   H       0|0.7|2|6|8|10L(qc=10)
%ENDBLOCK species_pot

SYMMETRY_TOL :     0.001000

%BLOCK symmetry_ops
# Symm. op. 1       E
          1.000000000000000       0.000000000000000       0.000000000000000
          0.000000000000000       1.000000000000000       0.000000000000000
          0.000000000000000       0.000000000000000       1.000000000000000
          0.000000000000000       0.000000000000000       0.000000000000000
# Symm. op. 2       I
         -1.000000000000000       0.000000000000000       0.000000000000000
          0.000000000000000      -1.000000000000000       0.000000000000000
          0.000000000000000       0.000000000000000      -1.000000000000000
         -0.000000000000000      -0.000000000000000       0.000000000000000
# Symm. op. 3     2_1
         -1.000000000000000       0.000000000000000       0.000000000000000
          0.000000000000000      -1.000000000000000       0.000000000000000
          0.000000000000000       0.000000000000000       1.000000000000000
          0.500000000000000       0.500000000000000       0.500000000000000
# Symm. op. 4       n
          1.000000000000000       0.000000000000000       0.000000000000000
          0.000000000000000       1.000000000000000       0.000000000000000
          0.000000000000000       0.000000000000000      -1.000000000000000
          0.500000000000000       0.500000000000000       0.500000000000000
# Symm. op. 5     2_1
          1.000000000000000       0.000000000000000       0.000000000000000
          0.000000000000000      -1.000000000000000       0.000000000000000
          0.000000000000000       0.000000000000000      -1.000000000000000
          0.500000000000000       0.500000000000000       0.000000000000000
# Symm. op. 6       b
         -1.000000000000000       0.000000000000000       0.000000000000000
          0.000000000000000       1.000000000000000       0.000000000000000
          0.000000000000000       0.000000000000000       1.000000000000000
          0.500000000000000       0.500000000000000       0.000000000000000
# Symm. op. 7       2
         -1.000000000000000       0.000000000000000       0.000000000000000
          0.000000000000000       1.000000000000000       0.000000000000000
          0.000000000000000       0.000000000000000      -1.000000000000000
          0.000000000000000       0.000000000000000       0.500000000000000
# Symm. op. 8       c
          1.000000000000000       0.000000000000000       0.000000000000000
          0.000000000000000      -1.000000000000000       0.000000000000000
          0.000000000000000       0.000000000000000       1.000000000000000
          0.000000000000000      -0.000000000000000       0.500000000000000
%ENDBLOCK symmetry_ops

kpoint_mp_grid :    5   5   5

phonon_kpoint_mp_grid :    8   6   4

%BLOCK external_pressure
   GPA
       300.00000000      0.00000000      0.00000000
       300.00000000      0.00000000
       300.00000000
%ENDBLOCK external_pressure

