# CELL file written 18:21:24 (GMT+1.0) 27th August 2020 from run Pbcn

%BLOCK lattice_cart
   ANG
       2.86553611785411       0.341548887418937E-37    0.00000000000000    
      0.298416827249269E-37    4.98736767833729        0.00000000000000    
       0.00000000000000        0.00000000000000        5.12655068460703    
%ENDBLOCK lattice_cart

%BLOCK cell_constraints
      1   2   3
      0   0   0
%ENDBLOCK cell_constraints

%BLOCK positions_frac
   H              0.403402949372149       0.114030176962071       0.011077198649945
   H              0.583858143429183       0.214540490593908       0.019048789559164
   H              0.581160875353732       0.554828505901913       0.003569185163965
   H              0.143415444762419       0.171748003740260       0.249255889355925
   H              0.314436016698123       0.343535505224860       0.245744449342375
   H              0.171480653555654       0.486050725224183       0.250663030788141
   H              0.171480653555654       0.513949274775817       0.750663030788141
   H              0.314436016698123       0.656464494775140       0.745744449342375
   H              0.143415444762419       0.828251996259739       0.749255889355925
   H              0.581160875353732       0.445171494098086       0.503569185163965
   H              0.583858143429183       0.785459509406092       0.519048789559164
   H              0.403402949372149       0.885969823037928       0.511077198649945
   H              0.328519346444346       0.986050725224183       0.250663030788141
   H              0.185563983301877       0.843535505224859       0.245744449342375
   H              0.356584555237581       0.671748003740261       0.249255889355925
   H             -0.081160875353732       0.054828505901914       0.003569185163965
   H             -0.083858143429183       0.714540490593908       0.019048789559164
   H              0.096597050627851       0.614030176962072       0.011077198649945
   H              0.671480653555653       0.986050725224183       0.249336969211859
   H              0.814436016698123       0.843535505224859       0.254255550657625
   H              0.643415444762419       0.671748003740261       0.250744110644075
   H              1.081160875353732       0.054828505901914       0.496430814836035
   H              1.083858143429183       0.714540490593908       0.480951210440836
   H              0.903402949372149       0.614030176962072       0.488922801350055
   H              0.828519346444348       0.513949274775817       0.749336969211859
   H              0.685563983301877       0.656464494775140       0.754255550657625
   H              0.856584555237581       0.828251996259739       0.750744110644075
   H              0.418839124646268       0.445171494098086      -0.003569185163965
   H              0.416141856570817       0.785459509406092       0.980951210440836
   H              0.596597050627851       0.885969823037928       0.988922801350055
   H              0.828519346444348       0.486050725224183       0.249336969211859
   H              0.685563983301877       0.343535505224860       0.254255550657625
   H              0.856584555237581       0.171748003740260       0.250744110644075
   H              0.418839124646268       0.554828505901913       0.496430814836035
   H              0.416141856570817       0.214540490593908       0.480951210440836
   H              0.596597050627851       0.114030176962071       0.488922801350055
   H              0.671480653555653       0.013949274775817       0.749336969211859
   H              0.814436016698123       0.156464494775140       0.754255550657625
   H              0.643415444762419       0.328251996259740       0.750744110644075
   H              0.081160875353732      -0.054828505901914      -0.003569185163965
   H              1.083858143429183       0.285459509406092       0.980951210440836
   H              0.903402949372149       0.385969823037930       0.988922801350055
   H              0.328519346444346       0.013949274775817       0.750663030788141
   H              0.185563983301877       0.156464494775140       0.745744449342375
   H              0.356584555237581       0.328251996259740       0.749255889355925
   H              0.918839124646268      -0.054828505901914       0.503569185163965
   H             -0.083858143429183       0.285459509406092       0.519048789559164
   H              0.096597050627851       0.385969823037930       0.511077198649945
%ENDBLOCK positions_frac

FIX_COM : true

%BLOCK species_mass
   AMU
   H          1.007825032    
%ENDBLOCK species_mass

%BLOCK species_gamma
   radsectesla
   H          267522128.0    
%ENDBLOCK species_gamma

%BLOCK species_pot
   H       0|0.7|2|6|8|10L(qc=10)
%ENDBLOCK species_pot

SYMMETRY_TOL :     0.001000

%BLOCK symmetry_ops
# Symm. op. 1       E
          1.000000000000000       0.000000000000000       0.000000000000000
          0.000000000000000       1.000000000000000       0.000000000000000
          0.000000000000000       0.000000000000000       1.000000000000000
          0.000000000000000       0.000000000000000       0.000000000000000
# Symm. op. 2       I
         -1.000000000000000       0.000000000000000       0.000000000000000
          0.000000000000000      -1.000000000000000       0.000000000000000
          0.000000000000000       0.000000000000000      -1.000000000000000
         -0.000000000000000      -0.000000000000000       0.000000000000000
# Symm. op. 3     2_1
         -1.000000000000000       0.000000000000000       0.000000000000000
          0.000000000000000      -1.000000000000000       0.000000000000000
          0.000000000000000       0.000000000000000       1.000000000000000
          0.500000000000000       0.500000000000000       0.500000000000000
# Symm. op. 4       n
          1.000000000000000       0.000000000000000       0.000000000000000
          0.000000000000000       1.000000000000000       0.000000000000000
          0.000000000000000       0.000000000000000      -1.000000000000000
          0.500000000000000       0.500000000000000       0.500000000000000
# Symm. op. 5     2_1
          1.000000000000000       0.000000000000000       0.000000000000000
          0.000000000000000      -1.000000000000000       0.000000000000000
          0.000000000000000       0.000000000000000      -1.000000000000000
          0.500000000000000       0.500000000000000       0.000000000000000
# Symm. op. 6       b
         -1.000000000000000       0.000000000000000       0.000000000000000
          0.000000000000000       1.000000000000000       0.000000000000000
          0.000000000000000       0.000000000000000       1.000000000000000
          0.500000000000000       0.500000000000000       0.000000000000000
# Symm. op. 7       2
         -1.000000000000000       0.000000000000000       0.000000000000000
          0.000000000000000       1.000000000000000       0.000000000000000
          0.000000000000000       0.000000000000000      -1.000000000000000
          0.000000000000000       0.000000000000000       0.500000000000000
# Symm. op. 8       c
          1.000000000000000       0.000000000000000       0.000000000000000
          0.000000000000000      -1.000000000000000       0.000000000000000
          0.000000000000000       0.000000000000000       1.000000000000000
          0.000000000000000      -0.000000000000000       0.500000000000000
%ENDBLOCK symmetry_ops

kpoint_mp_grid :   12  12  12



%BLOCK EXTERNAL_PRESSURE
GPA
240  0   0
    240  0
        240
%ENDBLOCK EXTERNAL_PRESSURE
