# CELL file written 19:57:06 (GMT+1.0) 27th August 2020 from run Pbcn

%BLOCK lattice_cart
   ANG
       2.91352754932270      -0.276160457736626E-34    0.00000000000000    
     -0.480948584578392E-34    5.06880479151653        0.00000000000000    
       0.00000000000000        0.00000000000000        5.20588867322120    
%ENDBLOCK lattice_cart

%BLOCK cell_constraints
      1   2   3
      0   0   0
%ENDBLOCK cell_constraints

%BLOCK positions_frac
   H              0.402116935733455       0.114818672845016       0.010875313270902
   H              0.581803319100764       0.212472050946349       0.023165993614886
   H              0.578075791922747       0.554926421784431       0.003856599385127
   H              0.139369117277219       0.171788679084192       0.248930824572516
   H              0.312241896629490       0.345739554528215       0.244669989957597
   H              0.173303445288251       0.484263151576487       0.250475563951197
   H              0.173303445288251       0.515736848423513       0.750475563951196
   H              0.312241896629490       0.654260445471785       0.744669989957598
   H              0.139369117277219       0.828211320915807       0.748930824572516
   H              0.578075791922747       0.445073578215569       0.503856599385127
   H              0.581803319100764       0.787527949053651       0.523165993614886
   H              0.402116935733455       0.885181327154983       0.510875313270902
   H              0.326696554711749       0.984263151576487       0.250475563951197
   H              0.187758103370510       0.845739554528214       0.244669989957597
   H              0.360630882722781       0.671788679084193       0.248930824572516
   H             -0.078075791922748       0.054926421784431       0.003856599385127
   H             -0.081803319100764       0.712472050946349       0.023165993614886
   H              0.097883064266545       0.614818672845017       0.010875313270902
   H              0.673303445288250       0.984263151576487       0.249524436048804
   H              0.812241896629490       0.845739554528214       0.255330010042403
   H              0.639369117277219       0.671788679084193       0.251069175427484
   H              1.078075791922747       0.054926421784431       0.496143400614873
   H              1.081803319100764       0.712472050946349       0.476834006385114
   H              0.902116935733456       0.614818672845017       0.489124686729098
   H              0.826696554711751       0.515736848423513       0.749524436048804
   H              0.687758103370510       0.654260445471785       0.755330010042402
   H              0.860630882722781       0.828211320915807       0.751069175427484
   H              0.421924208077252       0.445073578215569      -0.003856599385127
   H              0.418196680899236       0.787527949053651       0.976834006385114
   H              0.597883064266544       0.885181327154983       0.989124686729098
   H              0.826696554711751       0.484263151576487       0.249524436048804
   H              0.687758103370510       0.345739554528215       0.255330010042403
   H              0.860630882722781       0.171788679084192       0.251069175427484
   H              0.421924208077252       0.554926421784431       0.496143400614873
   H              0.418196680899236       0.212472050946349       0.476834006385114
   H              0.597883064266544       0.114818672845016       0.489124686729098
   H              0.673303445288250       0.015736848423513       0.749524436048804
   H              0.812241896629490       0.154260445471785       0.755330010042402
   H              0.639369117277219       0.328211320915809       0.751069175427484
   H              0.078075791922748      -0.054926421784431      -0.003856599385127
   H              1.081803319100764       0.287527949053651       0.976834006385114
   H              0.902116935733456       0.385181327154985       0.989124686729098
   H              0.326696554711749       0.015736848423513       0.750475563951196
   H              0.187758103370510       0.154260445471785       0.744669989957598
   H              0.360630882722781       0.328211320915809       0.748930824572516
   H              0.921924208077253      -0.054926421784431       0.503856599385127
   H             -0.081803319100764       0.287527949053651       0.523165993614886
   H              0.097883064266545       0.385181327154985       0.510875313270902
%ENDBLOCK positions_frac

FIX_COM : true

%BLOCK species_mass
   AMU
   H          1.007825032    
%ENDBLOCK species_mass

%BLOCK species_gamma
   radsectesla
   H          267522128.0    
%ENDBLOCK species_gamma

%BLOCK species_pot
   H       0|0.7|2|6|8|10L(qc=10)
%ENDBLOCK species_pot

SYMMETRY_TOL :     0.001000

%BLOCK symmetry_ops
# Symm. op. 1       E
          1.000000000000000       0.000000000000000       0.000000000000000
          0.000000000000000       1.000000000000000       0.000000000000000
          0.000000000000000       0.000000000000000       1.000000000000000
          0.000000000000000       0.000000000000000       0.000000000000000
# Symm. op. 2       I
         -1.000000000000000       0.000000000000000       0.000000000000000
          0.000000000000000      -1.000000000000000       0.000000000000000
          0.000000000000000       0.000000000000000      -1.000000000000000
         -0.000000000000000      -0.000000000000000       0.000000000000000
# Symm. op. 3     2_1
         -1.000000000000000       0.000000000000000       0.000000000000000
          0.000000000000000      -1.000000000000000       0.000000000000000
          0.000000000000000       0.000000000000000       1.000000000000000
          0.500000000000000       0.500000000000000       0.500000000000000
# Symm. op. 4       n
          1.000000000000000       0.000000000000000       0.000000000000000
          0.000000000000000       1.000000000000000       0.000000000000000
          0.000000000000000       0.000000000000000      -1.000000000000000
          0.500000000000000       0.500000000000000       0.500000000000000
# Symm. op. 5     2_1
          1.000000000000000       0.000000000000000       0.000000000000000
          0.000000000000000      -1.000000000000000       0.000000000000000
          0.000000000000000       0.000000000000000      -1.000000000000000
          0.500000000000000       0.500000000000000       0.000000000000000
# Symm. op. 6       b
         -1.000000000000000       0.000000000000000       0.000000000000000
          0.000000000000000       1.000000000000000       0.000000000000000
          0.000000000000000       0.000000000000000       1.000000000000000
          0.500000000000000       0.500000000000000       0.000000000000000
# Symm. op. 7       2
         -1.000000000000000       0.000000000000000       0.000000000000000
          0.000000000000000       1.000000000000000       0.000000000000000
          0.000000000000000       0.000000000000000      -1.000000000000000
          0.000000000000000       0.000000000000000       0.500000000000000
# Symm. op. 8       c
          1.000000000000000       0.000000000000000       0.000000000000000
          0.000000000000000      -1.000000000000000       0.000000000000000
          0.000000000000000       0.000000000000000       1.000000000000000
          0.000000000000000      -0.000000000000000       0.500000000000000
%ENDBLOCK symmetry_ops

kpoint_mp_grid :   12  12  12



%BLOCK EXTERNAL_PRESSURE
GPA
210  0   0
    210  0
        210
%ENDBLOCK EXTERNAL_PRESSURE
