# CELL file written 14:12:43 (GMT+1.0) 24th June 2020 from run Pbcn

%BLOCK lattice_cart
   ANG
       2.82885920692625       0.108544390110114E-34    0.00000000000000    
      0.188798734540026E-34    4.92043009797796        0.00000000000000    
       0.00000000000000        0.00000000000000        5.05025554463195    
%ENDBLOCK lattice_cart

%BLOCK cell_constraints
      1   2   3
      0   0   0
%ENDBLOCK cell_constraints

%BLOCK positions_frac
   H              0.405637446326956       0.112353710089938       0.010179053816871
   H              0.582530982073794       0.216660382755820       0.018283369993519
   H              0.580457322932738       0.556003376936377       0.004407757004051
   H              0.145134641333030       0.171923155363233       0.249067671627598
   H              0.315796347354004       0.342496199762542       0.245478102648888
   H              0.169922756454718       0.486992410194332       0.250546285246885
   H              0.169922756454718       0.513007589805668       0.750546285246885
   H              0.315796347354004       0.657503800237458       0.745478102648888
   H              0.145134641333030       0.828076844636767       0.749067671627598
   H              0.580457322932738       0.443996623063622       0.504407757004051
   H              0.582530982073794       0.783339617244180       0.518283369993519
   H              0.405637446326956       0.887646289910061       0.510179053816871
   H              0.330077243545282       0.986992410194332       0.250546285246885
   H              0.184203652645996       0.842496199762541       0.245478102648888
   H              0.354865358666970       0.671923155363233       0.249067671627598
   H             -0.080457322932738       0.056003376936378       0.004407757004051
   H             -0.082530982073794       0.716660382755820       0.018283369993519
   H              0.094362553673044       0.612353710089939       0.010179053816871
   H              0.669922756454718       0.986992410194332       0.249453714753115
   H              0.815796347354004       0.842496199762541       0.254521897351112
   H              0.645134641333030       0.671923155363233       0.250932328372402
   H              1.080457322932738       0.056003376936378       0.495592242995949
   H              1.082530982073794       0.716660382755820       0.481716630006481
   H              0.905637446326957       0.612353710089939       0.489820946183129
   H              0.830077243545283       0.513007589805668       0.749453714753115
   H              0.684203652645996       0.657503800237458       0.754521897351112
   H              0.854865358666970       0.828076844636767       0.750932328372402
   H              0.419542677067262       0.443996623063622      -0.004407757004051
   H              0.417469017926206       0.783339617244180       0.981716630006481
   H              0.594362553673043       0.887646289910061       0.989820946183129
   H              0.830077243545283       0.486992410194332       0.249453714753115
   H              0.684203652645996       0.342496199762542       0.254521897351112
   H              0.854865358666970       0.171923155363233       0.250932328372402
   H              0.419542677067262       0.556003376936377       0.495592242995949
   H              0.417469017926206       0.216660382755820       0.481716630006481
   H              0.594362553673043       0.112353710089938       0.489820946183129
   H              0.669922756454718       0.013007589805668       0.749453714753115
   H              0.815796347354004       0.157503800237458       0.754521897351112
   H              0.645134641333030       0.328076844636767       0.750932328372402
   H              0.080457322932738      -0.056003376936378      -0.004407757004051
   H              1.082530982073794       0.283339617244180       0.981716630006481
   H              0.905637446326957       0.387646289910063       0.989820946183129
   H              0.330077243545282       0.013007589805668       0.750546285246885
   H              0.184203652645996       0.157503800237458       0.745478102648888
   H              0.354865358666970       0.328076844636767       0.749067671627598
   H              0.919542677067262      -0.056003376936378       0.504407757004051
   H             -0.082530982073794       0.283339617244180       0.518283369993519
   H              0.094362553673044       0.387646289910063       0.510179053816871
%ENDBLOCK positions_frac

FIX_COM : true

%BLOCK species_mass
   AMU
   H          1.007825032    
%ENDBLOCK species_mass

%BLOCK species_gamma
   radsectesla
   H          267522128.0    
%ENDBLOCK species_gamma

%BLOCK species_pot
   H       0|0.7|2|6|8|10L(qc=10)
%ENDBLOCK species_pot

SYMMETRY_TOL :     0.001000

%BLOCK symmetry_ops
# Symm. op. 1       E
          1.000000000000000       0.000000000000000       0.000000000000000
          0.000000000000000       1.000000000000000       0.000000000000000
          0.000000000000000       0.000000000000000       1.000000000000000
          0.000000000000000       0.000000000000000       0.000000000000000
# Symm. op. 2       I
         -1.000000000000000       0.000000000000000       0.000000000000000
          0.000000000000000      -1.000000000000000       0.000000000000000
          0.000000000000000       0.000000000000000      -1.000000000000000
         -0.000000000000000      -0.000000000000000       0.000000000000000
# Symm. op. 3     2_1
         -1.000000000000000       0.000000000000000       0.000000000000000
          0.000000000000000      -1.000000000000000       0.000000000000000
          0.000000000000000       0.000000000000000       1.000000000000000
          0.500000000000000       0.500000000000000       0.500000000000000
# Symm. op. 4       n
          1.000000000000000       0.000000000000000       0.000000000000000
          0.000000000000000       1.000000000000000       0.000000000000000
          0.000000000000000       0.000000000000000      -1.000000000000000
          0.500000000000000       0.500000000000000       0.500000000000000
# Symm. op. 5     2_1
          1.000000000000000       0.000000000000000       0.000000000000000
          0.000000000000000      -1.000000000000000       0.000000000000000
          0.000000000000000       0.000000000000000      -1.000000000000000
          0.500000000000000       0.500000000000000       0.000000000000000
# Symm. op. 6       b
         -1.000000000000000       0.000000000000000       0.000000000000000
          0.000000000000000       1.000000000000000       0.000000000000000
          0.000000000000000       0.000000000000000       1.000000000000000
          0.500000000000000       0.500000000000000       0.000000000000000
# Symm. op. 7       2
         -1.000000000000000       0.000000000000000       0.000000000000000
          0.000000000000000       1.000000000000000       0.000000000000000
          0.000000000000000       0.000000000000000      -1.000000000000000
          0.000000000000000       0.000000000000000       0.500000000000000
# Symm. op. 8       c
          1.000000000000000       0.000000000000000       0.000000000000000
          0.000000000000000      -1.000000000000000       0.000000000000000
          0.000000000000000       0.000000000000000       1.000000000000000
          0.000000000000000      -0.000000000000000       0.500000000000000
%ENDBLOCK symmetry_ops

kpoint_mp_grid :    12   12   12


%BLOCK EXTERNAL_PRESSURE
GPA
300  0   0
    300  0
        300
%ENDBLOCK EXTERNAL_PRESSURE
