# CELL file written 03:38:54 (GMT+1.0) 28th August 2020 from run Pbcn

%BLOCK lattice_cart
   ANG
       3.21715166009453      -0.224839686048635E-33    0.00000000000000    
     -0.391107815609585E-33    5.58937739804549        0.00000000000000    
       0.00000000000000        0.00000000000000        5.65855103277465    
%ENDBLOCK lattice_cart

%BLOCK cell_constraints
      1   2   3
      0   0   0
%ENDBLOCK cell_constraints

%BLOCK positions_frac
   H              0.404011614173680       0.120799123728965       0.014072961845181
   H              0.572358278871334       0.204912864789834       0.040952317160665
   H              0.567679610956537       0.551863292792329       0.003224980306422
   H              0.119556089807434       0.170154040122891       0.247473380369495
   H              0.303467567118109       0.356501382975197       0.241063317306735
   H              0.184536813664290       0.475364001785363       0.251685913835482
   H              0.184536813664290       0.524635998214637       0.751685913835479
   H              0.303467567118109       0.643498617024803       0.741063317306736
   H              0.119556089807434       0.829845959877108       0.747473380369495
   H              0.567679610956537       0.448136707207672       0.503224980306422
   H              0.572358278871334       0.795087135210165       0.540952317160665
   H              0.404011614173680       0.879200876271034       0.514072961845182
   H              0.315463186335710       0.975364001785363       0.251685913835482
   H              0.196532432881891       0.856501382975196       0.241063317306735
   H              0.380443910192564       0.670154040122892       0.247473380369495
   H             -0.067679610956540       0.051863292792329       0.003224980306422
   H             -0.072358278871334       0.704912864789835       0.040952317160665
   H              0.095988385826319       0.620799123728966       0.014072961845181
   H              0.684536813664289       0.975364001785363       0.248314086164521
   H              0.803467567118108       0.856501382975196       0.258936682693265
   H              0.619556089807434       0.670154040122892       0.252526619630505
   H              1.067679610956537       0.051863292792329       0.496775019693578
   H              1.072358278871335       0.704912864789835       0.459047682839335
   H              0.904011614173683       0.620799123728966       0.485927038154819
   H              0.815463186335712       0.524635998214637       0.748314086164521
   H              0.696532432881892       0.643498617024803       0.758936682693264
   H              0.880443910192566       0.829845959877108       0.752526619630505
   H              0.432320389043460       0.448136707207672      -0.003224980306422
   H              0.427641721128666       0.795087135210165       0.959047682839335
   H              0.595988385826317       0.879200876271034       0.985927038154818
   H              0.815463186335712       0.475364001785363       0.248314086164521
   H              0.696532432881892       0.356501382975197       0.258936682693265
   H              0.880443910192566       0.170154040122891       0.252526619630505
   H              0.432320389043460       0.551863292792329       0.496775019693578
   H              0.427641721128666       0.204912864789834       0.459047682839335
   H              0.595988385826317       0.120799123728965       0.485927038154819
   H              0.684536813664289       0.024635998214637       0.748314086164521
   H              0.803467567118108       0.143498617024803       0.758936682693264
   H              0.619556089807434       0.329845959877110       0.752526619630505
   H              0.067679610956540      -0.051863292792329      -0.003224980306422
   H              1.072358278871335       0.295087135210166       0.959047682839335
   H              0.904011614173683       0.379200876271036       0.985927038154818
   H              0.315463186335710       0.024635998214637       0.751685913835479
   H              0.196532432881891       0.143498617024803       0.741063317306736
   H              0.380443910192564       0.329845959877110       0.747473380369495
   H              0.932320389043463      -0.051863292792329       0.503224980306422
   H             -0.072358278871334       0.295087135210166       0.540952317160665
   H              0.095988385826319       0.379200876271036       0.514072961845182
%ENDBLOCK positions_frac

FIX_COM : true

%BLOCK species_mass
   AMU
   H          1.007825032    
%ENDBLOCK species_mass

%BLOCK species_gamma
   radsectesla
   H          267522128.0    
%ENDBLOCK species_gamma

%BLOCK species_pot
   H       0|0.7|2|6|8|10L(qc=10)
%ENDBLOCK species_pot

SYMMETRY_TOL :     0.001000

%BLOCK symmetry_ops
# Symm. op. 1       E
          1.000000000000000       0.000000000000000       0.000000000000000
          0.000000000000000       1.000000000000000       0.000000000000000
          0.000000000000000       0.000000000000000       1.000000000000000
          0.000000000000000       0.000000000000000       0.000000000000000
# Symm. op. 2       I
         -1.000000000000000       0.000000000000000       0.000000000000000
          0.000000000000000      -1.000000000000000       0.000000000000000
          0.000000000000000       0.000000000000000      -1.000000000000000
         -0.000000000000000      -0.000000000000000       0.000000000000000
# Symm. op. 3     2_1
         -1.000000000000000       0.000000000000000       0.000000000000000
          0.000000000000000      -1.000000000000000       0.000000000000000
          0.000000000000000       0.000000000000000       1.000000000000000
          0.500000000000000       0.500000000000000       0.500000000000000
# Symm. op. 4       n
          1.000000000000000       0.000000000000000       0.000000000000000
          0.000000000000000       1.000000000000000       0.000000000000000
          0.000000000000000       0.000000000000000      -1.000000000000000
          0.500000000000000       0.500000000000000       0.500000000000000
# Symm. op. 5     2_1
          1.000000000000000       0.000000000000000       0.000000000000000
          0.000000000000000      -1.000000000000000       0.000000000000000
          0.000000000000000       0.000000000000000      -1.000000000000000
          0.500000000000000       0.500000000000000       0.000000000000000
# Symm. op. 6       b
         -1.000000000000000       0.000000000000000       0.000000000000000
          0.000000000000000       1.000000000000000       0.000000000000000
          0.000000000000000       0.000000000000000       1.000000000000000
          0.500000000000000       0.500000000000000       0.000000000000000
# Symm. op. 7       2
         -1.000000000000000       0.000000000000000       0.000000000000000
          0.000000000000000       1.000000000000000       0.000000000000000
          0.000000000000000       0.000000000000000      -1.000000000000000
          0.000000000000000       0.000000000000000       0.500000000000000
# Symm. op. 8       c
          1.000000000000000       0.000000000000000       0.000000000000000
          0.000000000000000      -1.000000000000000       0.000000000000000
          0.000000000000000       0.000000000000000       1.000000000000000
          0.000000000000000      -0.000000000000000       0.500000000000000
%ENDBLOCK symmetry_ops

kpoint_mp_grid :   12  12  12



%BLOCK EXTERNAL_PRESSURE
GPA
090  0   0
    090  0
        090
%ENDBLOCK EXTERNAL_PRESSURE
