# CELL file written 01:21:46 (GMT+1.0) 26th July 2020 from run P21c

%BLOCK lattice_cart
   ANG
       10.1407253692753        0.00000000000000       0.150360245119091E-02
       0.00000000000000        2.11351771310230        0.00000000000000    
      -6.76204514799998        0.00000000000000        3.64337420729759    
%ENDBLOCK lattice_cart

%BLOCK cell_constraints
      1   2   3
      0   5   0
%ENDBLOCK cell_constraints

%BLOCK positions_frac
   H              0.837343020448064       0.645986501844488       0.106363738114765
   H              0.162656979551936       0.354013498155510       0.893636261885235
   H              0.837343020448064       0.854013498155512       0.606363738114764
   H              0.162656979551936       0.145986501844490       0.393636261885235
   H              0.881350228418089       0.406826198247245       0.221770660608866
   H              0.118649771581911       0.593173801752755       0.778229339391135
   H              0.881350228418089       0.093173801752754       0.721770660608865
   H              0.118649771581911       0.906826198247245       0.278229339391134
   H              0.858491261547619       0.114542165063255       0.414439191317429
   H              0.141508738452381       0.885457834936744       0.585560808682571
   H              0.858491261547619       0.385457834936744       0.914439191317429
   H              0.141508738452381       0.614542165063256       0.085560808682571
   H              0.750755431850519       0.910158466972486       0.249993008291712
   H              0.249244568149480       0.089841533027513       0.750006991708289
   H              0.750755431850519       0.589841533027514       0.749993008291711
   H              0.249244568149480       0.410158466972487       0.250006991708288
   H              0.572801232168832       0.395793475859685       0.192591422110418
   H              0.427198767831167       0.604206524140315       0.807408577889582
   H              0.572801232168832       0.104206524140315       0.692591422110418
   H              0.427198767831167       0.895793475859685       0.307408577889582
   H              0.480582152711176       0.595216482268456       0.139075343962717
   H              0.519417847288825       0.404783517731542       0.860924656037282
   H              0.480582152711176       0.904783517731543       0.639075343962718
   H              0.519417847288825       0.095216482268458       0.360924656037283
%ENDBLOCK positions_frac

FIX_COM : true

%BLOCK species_gamma
   radsectesla
   H          267522128.0    
%ENDBLOCK species_gamma

%BLOCK species_pot
   H       0|0.7|2|6|8|10L(qc=10)
%ENDBLOCK species_pot

SYMMETRY_TOL :     0.001000

%BLOCK symmetry_ops
# Symm. op. 1       E
          1.000000000000000       0.000000000000000       0.000000000000000
          0.000000000000000       1.000000000000000       0.000000000000000
          0.000000000000000       0.000000000000000       1.000000000000000
          0.000000000000000       0.000000000000000       0.000000000000000
# Symm. op. 2       I
         -1.000000000000000       0.000000000000000       0.000000000000000
          0.000000000000000      -1.000000000000000       0.000000000000000
         -0.000000000000000       0.000000000000000      -1.000000000000000
          0.000000000000000       0.000000000000000      -0.000000000000000
# Symm. op. 3     2_1
         -1.000000000000000       0.000000000000000       0.000000000000000
          0.000000000000000       1.000000000000000       0.000000000000000
         -0.000000000000000       0.000000000000000      -1.000000000000000
          0.000000000000000       0.500000000000000       0.500000000000000
# Symm. op. 4       c
          1.000000000000000       0.000000000000000       0.000000000000000
          0.000000000000000      -1.000000000000000       0.000000000000000
          0.000000000000000       0.000000000000000       1.000000000000000
          0.000000000000000       0.500000000000000       0.500000000000000
%ENDBLOCK symmetry_ops

kpoint_mp_grid :    8  13  11

phonon_kpoint_mp_grid :    1   1   1



%BLOCK EXTERNAL_PRESSURE
GPA
030  0   0
    030  0
        030
%ENDBLOCK EXTERNAL_PRESSURE
