# CELL file written 04:29:19 (GMT+1.0) 26th July 2020 from run P21c

%BLOCK lattice_cart
   ANG
       10.5123051187936        0.00000000000000       0.199607699518326E-02
       0.00000000000000        2.18419625425783        0.00000000000000    
      -7.00966318466775        0.00000000000000        3.76423930241779    
%ENDBLOCK lattice_cart

%BLOCK cell_constraints
      1   2   3
      0   5   0
%ENDBLOCK cell_constraints

%BLOCK positions_frac
   H              0.839269096138856       0.638240761278248       0.109456531294350
   H              0.160730903861144       0.361759238721750       0.890543468705649
   H              0.839269096138856       0.861759238721752       0.609456531294350
   H              0.160730903861144       0.138240761278250       0.390543468705650
   H              0.880095639772527       0.407786423741778       0.220034506972063
   H              0.119904360227473       0.592213576258222       0.779965493027938
   H              0.880095639772527       0.092213576258221       0.720034506972062
   H              0.119904360227473       0.907786423741778       0.279965493027937
   H              0.856808251073687       0.109794708412933       0.412135076604668
   H              0.143191748926313       0.890205291587067       0.587864923395332
   H              0.856808251073687       0.390205291587067       0.912135076604668
   H              0.143191748926313       0.609794708412933       0.087864923395332
   H              0.752606164795474       0.911680576473271       0.252673542194928
   H              0.247393835204525       0.088319423526728       0.747326457805073
   H              0.752606164795474       0.588319423526729       0.752673542194927
   H              0.247393835204525       0.411680576473272       0.247326457805072
   H              0.571469593254339       0.399275440269871       0.191611204652595
   H              0.428530406745660       0.600724559730129       0.808388795347406
   H              0.571469593254339       0.100724559730129       0.691611204652594
   H              0.428530406745660       0.899275440269871       0.308388795347405
   H              0.482558829514859       0.590909673205803       0.140839964674071
   H              0.517441170485141       0.409090326794195       0.859160035325928
   H              0.482558829514859       0.909090326794196       0.640839964674072
   H              0.517441170485141       0.090909673205805       0.359160035325929
%ENDBLOCK positions_frac

FIX_COM : true

%BLOCK species_gamma
   radsectesla
   H          267522128.0    
%ENDBLOCK species_gamma

%BLOCK species_pot
   H       0|0.7|2|6|8|10L(qc=10)
%ENDBLOCK species_pot

SYMMETRY_TOL :     0.001000

%BLOCK symmetry_ops
# Symm. op. 1       E
          1.000000000000000       0.000000000000000       0.000000000000000
          0.000000000000000       1.000000000000000       0.000000000000000
          0.000000000000000       0.000000000000000       1.000000000000000
          0.000000000000000       0.000000000000000       0.000000000000000
# Symm. op. 2       I
         -1.000000000000000       0.000000000000000       0.000000000000000
          0.000000000000000      -1.000000000000000       0.000000000000000
         -0.000000000000000       0.000000000000000      -1.000000000000000
          0.000000000000000       0.000000000000000      -0.000000000000000
# Symm. op. 3     2_1
         -1.000000000000000       0.000000000000000       0.000000000000000
          0.000000000000000       1.000000000000000       0.000000000000000
         -0.000000000000000       0.000000000000000      -1.000000000000000
          0.000000000000000       0.500000000000000       0.500000000000000
# Symm. op. 4       c
          1.000000000000000       0.000000000000000       0.000000000000000
          0.000000000000000      -1.000000000000000       0.000000000000000
          0.000000000000000       0.000000000000000       1.000000000000000
          0.000000000000000       0.500000000000000       0.500000000000000
%ENDBLOCK symmetry_ops

kpoint_mp_grid :    8  13  11

phonon_kpoint_mp_grid :    1   1   1


