%BLOCK LATTICE_CART
    2.73    2.73    0.00
    2.73    0.00    2.73
    0.00    2.73    2.73
%ENDBLOCK LATTICE_CART

%BLOCK POSITIONS_FRAC
Si  0.00    0.00    0.00
Si  0.25    0.25    0.25
%ENDBLOCK POSITIONS_FRAC

SYMMETRY_GENERATE
SNAP_TO_SYMMETRY
KPOINT_MP_SPACING   0.1