# CELL file written 09:45:15 (GMT+1.0) 31st July 2020 from run Pbcn

%BLOCK lattice_cart
   ANG
       3.21401189938562       0.713857621732709E-34    0.00000000000000    
      0.124267147672758E-33    5.58591728151959        0.00000000000000    
       0.00000000000000        0.00000000000000        5.65878597100426    
%ENDBLOCK lattice_cart

%BLOCK cell_constraints
      1   2   3
      0   0   0
%ENDBLOCK cell_constraints

%BLOCK positions_frac
   H              0.404510223948013       0.120428332427805       0.013923197297546
   H              0.571865791706267       0.205469351592772       0.040782603679852
   H              0.567679756967116       0.551959150944263       0.003616806531909
   H              0.119760002997837       0.170215349382521       0.247503038068765
   H              0.303706636526293       0.356366409770210       0.241037306193375
   H              0.184273830057753       0.475350987103248       0.251576312926665
   H              0.184273830057753       0.524649012896751       0.751576312926665
   H              0.303706636526293       0.643633590229790       0.741037306193375
   H              0.119760002997837       0.829784650617480       0.747503038068765
   H              0.567679756967116       0.448040849055736       0.503616806531908
   H              0.571865791706267       0.794530648407228       0.540782603679852
   H              0.404510223948013       0.879571667572196       0.513923197297546
   H              0.315726169942247       0.975350987103249       0.251576312926665
   H              0.196293363473707       0.856366409770209       0.241037306193375
   H              0.380239997002164       0.670215349382520       0.247503038068765
   H             -0.067679756967116       0.051959150944264       0.003616806531909
   H             -0.071865791706266       0.705469351592772       0.040782603679852
   H              0.095489776051988       0.620428332427804       0.013923197297546
   H              0.684273830057753       0.975350987103249       0.248423687073335
   H              0.803706636526292       0.856366409770209       0.258962693806626
   H              0.619760002997837       0.670215349382520       0.252496961931236
   H              1.067679756967113       0.051959150944264       0.496383193468093
   H              1.071865791706266       0.705469351592772       0.459217396320147
   H              0.904510223948013       0.620428332427804       0.486076802702454
   H              0.815726169942248       0.524649012896751       0.748423687073335
   H              0.696293363473708       0.643633590229790       0.758962693806625
   H              0.880239997002163       0.829784650617480       0.752496961931235
   H              0.432320243032884       0.448040849055736      -0.003616806531909
   H              0.428134208293734       0.794530648407228       0.959217396320148
   H              0.595489776051987       0.879571667572196       0.986076802702454
   H              0.815726169942248       0.475350987103248       0.248423687073335
   H              0.696293363473708       0.356366409770210       0.258962693806626
   H              0.880239997002163       0.170215349382521       0.252496961931236
   H              0.432320243032884       0.551959150944263       0.496383193468093
   H              0.428134208293734       0.205469351592772       0.459217396320147
   H              0.595489776051987       0.120428332427805       0.486076802702454
   H              0.684273830057753       0.024649012896751       0.748423687073335
   H              0.803706636526292       0.143633590229790       0.758962693806625
   H              0.619760002997837       0.329784650617480       0.752496961931235
   H              0.067679756967116      -0.051959150944264      -0.003616806531909
   H              1.071865791706266       0.294530648407228       0.959217396320148
   H              0.904510223948013       0.379571667572196       0.986076802702454
   H              0.315726169942247       0.024649012896751       0.751576312926665
   H              0.196293363473707       0.143633590229790       0.741037306193375
   H              0.380239997002164       0.329784650617480       0.747503038068765
   H              0.932320243032884      -0.051959150944264       0.503616806531908
   H             -0.071865791706266       0.294530648407228       0.540782603679852
   H              0.095489776051988       0.379571667572196       0.513923197297546
%ENDBLOCK positions_frac

FIX_COM : true

%BLOCK species_mass
   AMU
   H          2.014101778    
%ENDBLOCK species_mass

%BLOCK species_gamma
   radsectesla
   H          267522128.0    
%ENDBLOCK species_gamma

%BLOCK species_pot
   H       1|0.6|13|15|17|10(qc=8)
%ENDBLOCK species_pot

SYMMETRY_TOL :     0.001000

%BLOCK symmetry_ops
# Symm. op. 1       E
          1.000000000000000       0.000000000000000       0.000000000000000
          0.000000000000000       1.000000000000000       0.000000000000000
          0.000000000000000       0.000000000000000       1.000000000000000
          0.000000000000000       0.000000000000000       0.000000000000000
# Symm. op. 2       I
         -1.000000000000000       0.000000000000000       0.000000000000000
          0.000000000000000      -1.000000000000000       0.000000000000000
          0.000000000000000       0.000000000000000      -1.000000000000000
         -0.000000000000000      -0.000000000000000       0.000000000000000
# Symm. op. 3     2_1
         -1.000000000000000       0.000000000000000       0.000000000000000
          0.000000000000000      -1.000000000000000       0.000000000000000
          0.000000000000000       0.000000000000000       1.000000000000000
          0.500000000000000       0.500000000000000       0.500000000000000
# Symm. op. 4       n
          1.000000000000000       0.000000000000000       0.000000000000000
          0.000000000000000       1.000000000000000       0.000000000000000
          0.000000000000000       0.000000000000000      -1.000000000000000
          0.500000000000000       0.500000000000000       0.500000000000000
# Symm. op. 5     2_1
          1.000000000000000       0.000000000000000       0.000000000000000
          0.000000000000000      -1.000000000000000       0.000000000000000
          0.000000000000000       0.000000000000000      -1.000000000000000
          0.500000000000000       0.500000000000000       0.000000000000000
# Symm. op. 6       b
         -1.000000000000000       0.000000000000000       0.000000000000000
          0.000000000000000       1.000000000000000       0.000000000000000
          0.000000000000000       0.000000000000000       1.000000000000000
          0.500000000000000       0.500000000000000       0.000000000000000
# Symm. op. 7       2
         -1.000000000000000       0.000000000000000       0.000000000000000
          0.000000000000000       1.000000000000000       0.000000000000000
          0.000000000000000       0.000000000000000      -1.000000000000000
          0.000000000000000       0.000000000000000       0.500000000000000
# Symm. op. 8       c
          1.000000000000000       0.000000000000000       0.000000000000000
          0.000000000000000      -1.000000000000000       0.000000000000000
          0.000000000000000       0.000000000000000       1.000000000000000
          0.000000000000000      -0.000000000000000       0.500000000000000
%ENDBLOCK symmetry_ops

kpoint_mp_grid :    5   5   5

phonon_kpoint_mp_grid :    8   6   4

%BLOCK external_pressure
   GPA
       120.00000000      0.00000000      0.00000000
       120.00000000      0.00000000
       120.00000000
%ENDBLOCK external_pressure

