# CELL file written 11:20:15 (GMT+1.0) 31st July 2020 from run Pbcn

%BLOCK lattice_cart
   ANG
       3.34760218386957       0.970170126862484E-34    0.00000000000000    
      0.168836753450330E-33    5.81744363879025        0.00000000000000    
       0.00000000000000        0.00000000000000        5.84453631031134    
%ENDBLOCK lattice_cart

%BLOCK cell_constraints
      1   2   3
      0   0   0
%ENDBLOCK cell_constraints

%BLOCK positions_frac
   H              0.407764739052985       0.122627820411305       0.018055753645343
   H              0.569592162344488       0.204200548069454       0.044655305915463
   H              0.565818284541333       0.549762124945087       0.003263018152813
   H              0.113489862918407       0.169578256065725       0.247055361512638
   H              0.301122235374844       0.359602562066853       0.240222881403857
   H              0.188177259304524       0.472186831918148       0.253208741552109
   H              0.188177259304524       0.527813168081851       0.753208741552109
   H              0.301122235374844       0.640397437933147       0.740222881403857
   H              0.113489862918407       0.830421743934276       0.747055361512638
   H              0.565818284541333       0.450237875054912       0.503263018152812
   H              0.569592162344488       0.795799451930545       0.544655305915463
   H              0.407764739052985       0.877372179588696       0.518055753645343
   H              0.311822740695476       0.972186831918149       0.253208741552109
   H              0.198877764625156       0.859602562066852       0.240222881403857
   H              0.386510137081594       0.669578256065724       0.247055361512638
   H             -0.065818284541333       0.049762124945088       0.003263018152813
   H             -0.069592162344487       0.704200548069455       0.044655305915463
   H              0.092235260947016       0.622627820411304       0.018055753645343
   H              0.688177259304524       0.972186831918149       0.246791258447891
   H              0.801122235374843       0.859602562066852       0.259777118596144
   H              0.613489862918407       0.669578256065724       0.252944638487363
   H              1.065818284541329       0.049762124945088       0.496736981847189
   H              1.069592162344487       0.704200548069455       0.455344694084536
   H              0.907764739052984       0.622627820411304       0.481944246354657
   H              0.811822740695477       0.527813168081851       0.746791258447891
   H              0.698877764625157       0.640397437933147       0.759777118596143
   H              0.886510137081593       0.830421743934276       0.752944638487362
   H              0.434181715458667       0.450237875054912      -0.003263018152813
   H              0.430407837655513       0.795799451930545       0.955344694084537
   H              0.592235260947016       0.877372179588696       0.981944246354657
   H              0.811822740695477       0.472186831918148       0.246791258447891
   H              0.698877764625157       0.359602562066853       0.259777118596144
   H              0.886510137081593       0.169578256065725       0.252944638487363
   H              0.434181715458667       0.549762124945087       0.496736981847189
   H              0.430407837655513       0.204200548069454       0.455344694084536
   H              0.592235260947016       0.122627820411305       0.481944246354657
   H              0.688177259304524       0.027813168081851       0.746791258447891
   H              0.801122235374843       0.140397437933147       0.759777118596143
   H              0.613489862918407       0.330421743934276       0.752944638487362
   H              0.065818284541333      -0.049762124945088      -0.003263018152813
   H              1.069592162344487       0.295799451930545       0.955344694084537
   H              0.907764739052984       0.377372179588696       0.981944246354657
   H              0.311822740695476       0.027813168081851       0.753208741552109
   H              0.198877764625156       0.140397437933147       0.740222881403857
   H              0.386510137081594       0.330421743934276       0.747055361512638
   H              0.934181715458667      -0.049762124945088       0.503263018152812
   H             -0.069592162344487       0.295799451930545       0.544655305915463
   H              0.092235260947016       0.377372179588696       0.518055753645343
%ENDBLOCK positions_frac

FIX_COM : true

%BLOCK species_mass
   AMU
   H          2.014101778    
%ENDBLOCK species_mass

%BLOCK species_gamma
   radsectesla
   H          267522128.0    
%ENDBLOCK species_gamma

%BLOCK species_pot
   H       1|0.6|13|15|17|10(qc=8)
%ENDBLOCK species_pot

SYMMETRY_TOL :     0.001000

%BLOCK symmetry_ops
# Symm. op. 1       E
          1.000000000000000       0.000000000000000       0.000000000000000
          0.000000000000000       1.000000000000000       0.000000000000000
          0.000000000000000       0.000000000000000       1.000000000000000
          0.000000000000000       0.000000000000000       0.000000000000000
# Symm. op. 2       I
         -1.000000000000000       0.000000000000000       0.000000000000000
          0.000000000000000      -1.000000000000000       0.000000000000000
          0.000000000000000       0.000000000000000      -1.000000000000000
         -0.000000000000000      -0.000000000000000       0.000000000000000
# Symm. op. 3     2_1
         -1.000000000000000       0.000000000000000       0.000000000000000
          0.000000000000000      -1.000000000000000       0.000000000000000
          0.000000000000000       0.000000000000000       1.000000000000000
          0.500000000000000       0.500000000000000       0.500000000000000
# Symm. op. 4       n
          1.000000000000000       0.000000000000000       0.000000000000000
          0.000000000000000       1.000000000000000       0.000000000000000
          0.000000000000000       0.000000000000000      -1.000000000000000
          0.500000000000000       0.500000000000000       0.500000000000000
# Symm. op. 5     2_1
          1.000000000000000       0.000000000000000       0.000000000000000
          0.000000000000000      -1.000000000000000       0.000000000000000
          0.000000000000000       0.000000000000000      -1.000000000000000
          0.500000000000000       0.500000000000000       0.000000000000000
# Symm. op. 6       b
         -1.000000000000000       0.000000000000000       0.000000000000000
          0.000000000000000       1.000000000000000       0.000000000000000
          0.000000000000000       0.000000000000000       1.000000000000000
          0.500000000000000       0.500000000000000       0.000000000000000
# Symm. op. 7       2
         -1.000000000000000       0.000000000000000       0.000000000000000
          0.000000000000000       1.000000000000000       0.000000000000000
          0.000000000000000       0.000000000000000      -1.000000000000000
          0.000000000000000       0.000000000000000       0.500000000000000
# Symm. op. 8       c
          1.000000000000000       0.000000000000000       0.000000000000000
          0.000000000000000      -1.000000000000000       0.000000000000000
          0.000000000000000       0.000000000000000       1.000000000000000
          0.000000000000000      -0.000000000000000       0.500000000000000
%ENDBLOCK symmetry_ops

kpoint_mp_grid :    5   5   5

phonon_kpoint_mp_grid :    8   6   4

%BLOCK external_pressure
   GPA
        90.00000000      0.00000000      0.00000000
        90.00000000      0.00000000
        90.00000000
%ENDBLOCK external_pressure

