# CELL file written 14:15:57 (GMT+1.0) 25th July 2020 from run P21c

%BLOCK lattice_cart
   ANG
       9.85270614426294        0.00000000000000       0.138508821107781E-02
       0.00000000000000        2.05912186516084        0.00000000000000    
      -6.57001676315645        0.00000000000000        3.55032933099740    
%ENDBLOCK lattice_cart

%BLOCK cell_constraints
      1   2   3
      0   5   0
%ENDBLOCK cell_constraints

%BLOCK positions_frac
   H              0.835574006335127       0.652875577725544       0.103678049208842
   H              0.164425993664873       0.347124422274455       0.896321950791158
   H              0.835574006335127       0.847124422274456       0.603678049208841
   H              0.164425993664873       0.152875577725545       0.396321950791158
   H              0.882544978036663       0.406307078985589       0.223228825392174
   H              0.117455021963337       0.593692921014411       0.776771174607827
   H              0.882544978036663       0.093692921014410       0.723228825392173
   H              0.117455021963337       0.906307078985589       0.276771174607826
   H              0.859883194073506       0.118795440347375       0.416268962978020
   H              0.140116805926494       0.881204559652625       0.583731037021980
   H              0.859883194073506       0.381204559652625       0.916268962978020
   H              0.140116805926494       0.618795440347375       0.083731037021980
   H              0.749293085143368       0.908967123356756       0.247917935948542
   H              0.250706914856631       0.091032876643243       0.752082064051459
   H              0.749293085143368       0.591032876643244       0.747917935948541
   H              0.250706914856631       0.408967123356757       0.252082064051458
   H              0.573807769394652       0.392445118648621       0.193388856106884
   H              0.426192230605347       0.607554881351379       0.806611143893116
   H              0.573807769394652       0.107554881351379       0.693388856106884
   H              0.426192230605347       0.892445118648621       0.306611143893116
   H              0.478882406457617       0.598860733176977       0.137442449403537
   H              0.521117593542384       0.401139266823021       0.862557550596462
   H              0.478882406457617       0.901139266823022       0.637442449403538
   H              0.521117593542384       0.098860733176979       0.362557550596463
%ENDBLOCK positions_frac

FIX_COM : true

%BLOCK species_gamma
   radsectesla
   H          267522128.0    
%ENDBLOCK species_gamma

%BLOCK species_pot
   H       0|0.7|2|6|8|10L(qc=10)
%ENDBLOCK species_pot

SYMMETRY_TOL :     0.001000

%BLOCK symmetry_ops
# Symm. op. 1       E
          1.000000000000000       0.000000000000000       0.000000000000000
          0.000000000000000       1.000000000000000       0.000000000000000
          0.000000000000000       0.000000000000000       1.000000000000000
          0.000000000000000       0.000000000000000       0.000000000000000
# Symm. op. 2       I
         -1.000000000000000       0.000000000000000       0.000000000000000
          0.000000000000000      -1.000000000000000       0.000000000000000
         -0.000000000000000       0.000000000000000      -1.000000000000000
          0.000000000000000       0.000000000000000      -0.000000000000000
# Symm. op. 3     2_1
         -1.000000000000000       0.000000000000000       0.000000000000000
          0.000000000000000       1.000000000000000       0.000000000000000
         -0.000000000000000       0.000000000000000      -1.000000000000000
          0.000000000000000       0.500000000000000       0.500000000000000
# Symm. op. 4       c
          1.000000000000000       0.000000000000000       0.000000000000000
          0.000000000000000      -1.000000000000000       0.000000000000000
          0.000000000000000       0.000000000000000       1.000000000000000
          0.000000000000000       0.500000000000000       0.500000000000000
%ENDBLOCK symmetry_ops

kpoint_mp_grid :    4  14  14

%BLOCK external_pressure
   GPA
        50.00000000      0.00000000      0.00000000
        50.00000000      0.00000000
        50.00000000
%ENDBLOCK external_pressure

