%BLOCK LATTICE_CART
      -1.433199999999999       1.433200000000001       1.433200000000001
       1.433200000000001      -1.433200000000000       1.433200000000000
       1.433200000000000       1.433200000000000      -1.433200000000000
%ENDBLOCK LATTICE_CART

%BLOCK POSITIONS_FRAC
 Fe   0.0000000000000000   0.0000000000000000   0.0000000000000000
%ENDBLOCK POSITIONS_FRAC

SYMMETRY_GENERATE

! Kpoint grid for the Groundstate (SCF) calculation
KPOINT_MP_GRID 8 8 8

! Kpoint grid for density of states
BS_KPOINT_MP_GRID 12 12 12 