# CELL file written 10:35:55 (GMT+1.0) 3rd July 2020 from run Cmca-12

%BLOCK lattice_cart
   ANG
      1.0000000   0.0000000   0.0000000 
      0.0000000   1.8583170   0.0000000 
      0.0000000   0.0000000   1.1236791 
%ENDBLOCK lattice_cart

%BLOCK cell_constraints
      1   2   3
      0   0   0
%ENDBLOCK cell_constraints

%BLOCK positions_frac
   H       0.0000000   0.0036000   0.1358000
   H       0.0000000   0.1317000   0.4527000
   H       0.0000000   0.2689000   0.3163000
   H       0.5000000   0.2689000   0.1837000
   H       0.5000000   0.1317000   0.0473000
   H       0.5000000   0.0036000   0.3642000
   H       0.5000000   0.2311000   0.6837000
   H       0.5000000   0.3683000   0.5473000
   H       0.5000000   0.4964000   0.8642000
   H       0.5000000   0.7311000   0.8163000
   H       0.5000000   0.8683000   0.9527000
   H       0.5000000   0.9964000   0.6358000
   H       0.5000000   0.7689000   0.3163000
   H       0.5000000   0.6317000   0.4527000
   H       0.5000000   0.5036000   0.1358000
   H       0.0000000   0.7689000   0.1837000
   H       0.0000000   0.6317000   0.0473000
   H       0.0000000   0.5036000   0.3642000
   H       0.0000000   0.7311000   0.6837000
   H       0.0000000   0.8683000   0.5473000
   H       0.0000000   0.9964000   0.8642000
   H       0.0000000   0.2311000   0.8163000
   H       0.0000000   0.3683000   0.9527000
   H       0.0000000   0.4964000   0.6358000
%ENDBLOCK positions_frac

FIX_COM : true

%BLOCK species_mass
   AMU
   H          1.007825032    
%ENDBLOCK species_mass

%BLOCK species_gamma
   radsectesla
   H          267522128.0    
%ENDBLOCK species_gamma

%BLOCK species_pot
   H       0|0.7|2|6|8|10L(qc=10)
%ENDBLOCK species_pot

SYMMETRY_TOL :     0.001000

kpoint_mp_grid :    6   5   5


%BLOCK EXTERNAL_PRESSURE
GPA
300  0   0
    300  0
        300
%ENDBLOCK EXTERNAL_PRESSURE
