# CELL file written 15:02:57 (GMT+1.0) 30th July 2020 from run C2c

%BLOCK lattice_cart
   ANG
       5.71938018236814        0.00000000000000      -0.159952117935088E-01
       0.00000000000000        3.03613250321442        0.00000000000000    
      -3.80864375342806        0.00000000000000        3.20517871191936    
%ENDBLOCK lattice_cart

%BLOCK cell_constraints
      1   2   3
      0   5   0
%ENDBLOCK cell_constraints

%BLOCK positions_frac
   H              0.166666540331707      -0.122758549335616       0.250000018772001
   H              0.333333175728803       0.122758358991939       0.249999972384280
   H              0.500000000000000       0.122758264553883       0.750000000000000
   H              0.500000000000000       0.377241357987547       0.750000000000000
   H              0.833333459668293      -0.122758549335616       0.249999981227998
   H              0.666666824271197       0.122758358991939       0.250000027615719
   H              0.666666540331707       0.377241450664385       0.250000018772001
   H              0.833333175728803       0.622758358991939       0.249999972384280
   H              0.000000000000000       0.622758264553884       0.750000000000000
   H              0.000000000000000       0.877241357987548       0.750000000000000
   H              0.333333459668292       0.377241450664385       0.249999981227998
   H              0.166666824271197       0.622758358991939       0.250000027615719
   H              0.333333459668292       0.622758549335615       0.749999981227999
   H              0.166666824271197       0.377241641008061       0.750000027615719
   H             -0.000000000000000       0.377241735446116       0.250000000000000
   H              0.000000000000000       0.122758642012453       0.250000000000000
   H              0.666666540331707       0.622758549335615       0.750000018772001
   H              0.833333175728803       0.377241641008061       0.749999972384281
   H              0.833333459668293       1.122758549335614       0.749999981227999
   H              0.666666824271197       0.877241641008061       0.750000027615719
   H              0.500000000000000       0.877241735446116       0.250000000000000
   H              0.500000000000000       0.622758642012452       0.250000000000000
   H              0.166666540331707       1.122758549335614       0.750000018772001
   H              0.333333175728803       0.877241641008061       0.749999972384281
%ENDBLOCK positions_frac

FIX_COM : true

%BLOCK species_mass
   AMU
   H          2.014101778    
%ENDBLOCK species_mass

%BLOCK species_gamma
   radsectesla
   H          267522128.0    
%ENDBLOCK species_gamma

%BLOCK species_pot
   H       1|0.6|13|15|17|10(qc=8)
%ENDBLOCK species_pot

SYMMETRY_TOL :     0.001000

%BLOCK symmetry_ops
# Symm. op. 1       E
          1.000000000000000       0.000000000000000       0.000000000000000
          0.000000000000000       1.000000000000000       0.000000000000000
         -0.000000000000000       0.000000000000000       1.000000000000000
          0.000000000000000       0.000000000000000       0.000000000000000
# Symm. op. 2       I
         -1.000000000000000       0.000000000000000       0.000000000000000
          0.000000000000000      -1.000000000000000       0.000000000000000
          0.000000000000000       0.000000000000000      -1.000000000000000
         -0.000000000000000      -0.000000000000000      -0.000000000000000
# Symm. op. 3     2_1
         -1.000000000000000       0.000000000000000       0.000000000000000
          0.000000000000000       1.000000000000000       0.000000000000000
          0.000000000000000       0.000000000000000      -1.000000000000000
          0.500000000000000       0.500000000000000       0.500000000000000
# Symm. op. 4       n
          1.000000000000000       0.000000000000000       0.000000000000000
          0.000000000000000      -1.000000000000000       0.000000000000000
         -0.000000000000000       0.000000000000000       1.000000000000000
          0.500000000000000       0.500000000000000       0.500000000000000
# Symm. op. 5       E
          1.000000000000000       0.000000000000000       0.000000000000000
          0.000000000000000       1.000000000000000       0.000000000000000
         -0.000000000000000       0.000000000000000       1.000000000000000
          0.500000000000000       0.500000000000000       0.000000000000000
# Symm. op. 6       I
         -1.000000000000000       0.000000000000000       0.000000000000000
          0.000000000000000      -1.000000000000000       0.000000000000000
          0.000000000000000       0.000000000000000      -1.000000000000000
          0.500000000000000       0.500000000000000      -0.000000000000000
# Symm. op. 7       2
         -1.000000000000000       0.000000000000000       0.000000000000000
          0.000000000000000       1.000000000000000       0.000000000000000
          0.000000000000000       0.000000000000000      -1.000000000000000
         -0.000000000000000       0.000000000000000       0.500000000000000
# Symm. op. 8       c
          1.000000000000000       0.000000000000000       0.000000000000000
          0.000000000000000      -1.000000000000000       0.000000000000000
         -0.000000000000000       0.000000000000000       1.000000000000000
          0.000000000000000      -0.000000000000000       0.500000000000000
%ENDBLOCK symmetry_ops

kpoint_mp_grid :    2   2   2

phonon_kpoint_mp_grid :    1   1   1

%BLOCK external_pressure
   GPA
        90.00000000      0.00000000      0.00000000
        90.00000000      0.00000000
        90.00000000
%ENDBLOCK external_pressure

