# CELL file written 14:58:13 (GMT+1.0) 30th July 2020 from run C2c

%BLOCK lattice_cart
   ANG
       5.18139686834006        0.00000000000000      -0.204332181171689E-01
       0.00000000000000        2.81099515347704        0.00000000000000    
      -3.45361024264031        0.00000000000000        2.94602563811638    
%ENDBLOCK lattice_cart

%BLOCK cell_constraints
      1   2   3
      0   5   0
%ENDBLOCK cell_constraints

%BLOCK positions_frac
   H              0.166666173815873      -0.109957966152381       0.249999956193780
   H              0.333332851887271       0.109957197787038       0.249999977159586
   H              0.500000000000000       0.109956837689909       0.750000000000000
   H              0.500000000000000       0.390041669693792       0.750000000000000
   H              0.833333826184127      -0.109957966152381       0.250000043806220
   H              0.666667148112729       0.109957197787038       0.250000022840414
   H              0.666666173815873       0.390042033847620       0.249999956193780
   H              0.833332851887271       0.609957197787038       0.249999977159586
   H              0.000000000000000       0.609956837689910       0.750000000000000
   H             -0.000000000000000       0.890041669693793       0.750000000000000
   H              0.333333826184126       0.390042033847620       0.250000043806220
   H              0.166667148112729       0.609957197787038       0.250000022840414
   H              0.333333826184126       0.609957966152381       0.750000043806220
   H              0.166667148112729       0.390042802212962       0.750000022840413
   H             -0.000000000000000       0.390043162310090       0.250000000000000
   H              0.000000000000000       0.109958330306208       0.250000000000000
   H              0.666666173815873       0.609957966152381       0.749999956193780
   H              0.833332851887271       0.390042802212962       0.749999977159587
   H              0.833333826184127       1.109957966152379       0.750000043806220
   H              0.666667148112729       0.890042802212962       0.750000022840413
   H              0.500000000000000       0.890043162310090       0.250000000000000
   H              0.500000000000000       0.609958330306207       0.250000000000000
   H              0.166666173815873       1.109957966152379       0.749999956193780
   H              0.333332851887271       0.890042802212962       0.749999977159587
%ENDBLOCK positions_frac

FIX_COM : true

%BLOCK species_mass
   AMU
   H          2.014101778    
%ENDBLOCK species_mass

%BLOCK species_gamma
   radsectesla
   H          267522128.0    
%ENDBLOCK species_gamma

%BLOCK species_pot
   H       1|0.6|13|15|17|10(qc=8)
%ENDBLOCK species_pot

SYMMETRY_TOL :     0.001000

%BLOCK symmetry_ops
# Symm. op. 1       E
          1.000000000000000       0.000000000000000       0.000000000000000
          0.000000000000000       1.000000000000000       0.000000000000000
         -0.000000000000000       0.000000000000000       1.000000000000000
          0.000000000000000       0.000000000000000       0.000000000000000
# Symm. op. 2       I
         -1.000000000000000       0.000000000000000       0.000000000000000
          0.000000000000000      -1.000000000000000       0.000000000000000
          0.000000000000000       0.000000000000000      -1.000000000000000
         -0.000000000000000      -0.000000000000000      -0.000000000000000
# Symm. op. 3     2_1
         -1.000000000000000       0.000000000000000       0.000000000000000
          0.000000000000000       1.000000000000000       0.000000000000000
          0.000000000000000       0.000000000000000      -1.000000000000000
          0.500000000000000       0.500000000000000       0.500000000000000
# Symm. op. 4       n
          1.000000000000000       0.000000000000000       0.000000000000000
          0.000000000000000      -1.000000000000000       0.000000000000000
         -0.000000000000000       0.000000000000000       1.000000000000000
          0.500000000000000       0.500000000000000       0.500000000000000
# Symm. op. 5       E
          1.000000000000000       0.000000000000000       0.000000000000000
          0.000000000000000       1.000000000000000       0.000000000000000
         -0.000000000000000       0.000000000000000       1.000000000000000
          0.500000000000000       0.500000000000000       0.000000000000000
# Symm. op. 6       I
         -1.000000000000000       0.000000000000000       0.000000000000000
          0.000000000000000      -1.000000000000000       0.000000000000000
          0.000000000000000       0.000000000000000      -1.000000000000000
          0.500000000000000       0.500000000000000      -0.000000000000000
# Symm. op. 7       2
         -1.000000000000000       0.000000000000000       0.000000000000000
          0.000000000000000       1.000000000000000       0.000000000000000
          0.000000000000000       0.000000000000000      -1.000000000000000
         -0.000000000000000       0.000000000000000       0.500000000000000
# Symm. op. 8       c
          1.000000000000000       0.000000000000000       0.000000000000000
          0.000000000000000      -1.000000000000000       0.000000000000000
         -0.000000000000000       0.000000000000000       1.000000000000000
          0.000000000000000      -0.000000000000000       0.500000000000000
%ENDBLOCK symmetry_ops

kpoint_mp_grid :    2   2   2

phonon_kpoint_mp_grid :    1   1   1

%BLOCK external_pressure
   GPA
       180.00000000      0.00000000      0.00000000
       180.00000000      0.00000000
       180.00000000
%ENDBLOCK external_pressure

