# CELL file written 14:52:04 (GMT+1.0) 30th July 2020 from run C2c

%BLOCK lattice_cart
   ANG
       4.89521406842726        0.00000000000000      -0.216834698355761E-01
       0.00000000000000        2.68229929618520        0.00000000000000    
      -3.26417524035922        0.00000000000000        2.79222054541421    
%ENDBLOCK lattice_cart

%BLOCK cell_constraints
      1   2   3
      0   5   0
%ENDBLOCK cell_constraints

%BLOCK positions_frac
   H              0.185546464303803      -0.090127162148372       0.252110847515826
   H              0.349692069149453       0.120830266205128       0.250617055466626
   H              0.500000000000000       0.131065664127885       0.750000000000000
   H              0.500000000000000       0.423764475374180       0.750000000000000
   H              0.814453535696197      -0.090127162148372       0.247889152484174
   H              0.650307930850547       0.120830266205128       0.249382944533374
   H              0.685546464303803       0.409872837851628       0.252110847515826
   H              0.849692069149453       0.620830266205128       0.250617055466626
   H             -0.000000000000000       0.631065664127885       0.750000000000000
   H             -0.000000000000000       0.923764475374180       0.750000000000000
   H              0.314453535696197       0.409872837851628       0.247889152484174
   H              0.150307930850547       0.620830266205128       0.249382944533374
   H              0.314453535696197       0.590127162148372       0.747889152484174
   H              0.150307930850547       0.379169733794872       0.749382944533373
   H              0.000000000000000       0.368934335872115       0.250000000000000
   H              0.000000000000000       0.076235524625820       0.250000000000000
   H              0.685546464303803       0.590127162148372       0.752110847515826
   H              0.849692069149453       0.379169733794872       0.750617055466627
   H              0.814453535696197       1.090127162148372       0.747889152484174
   H              0.650307930850547       0.879169733794872       0.749382944533373
   H              0.500000000000000       0.868934335872115       0.250000000000000
   H              0.500000000000000       0.576235524625820       0.250000000000000
   H              0.185546464303803       1.090127162148372       0.752110847515826
   H              0.349692069149453       0.879169733794872       0.750617055466627
%ENDBLOCK positions_frac

FIX_COM : true

%BLOCK species_mass
   AMU
   H          2.014101778    
%ENDBLOCK species_mass

%BLOCK species_gamma
   radsectesla
   H          267522128.0    
%ENDBLOCK species_gamma

%BLOCK species_pot
   H       1|0.6|13|15|17|10(qc=8)
%ENDBLOCK species_pot

SYMMETRY_TOL :     0.001000

%BLOCK symmetry_ops
# Symm. op. 1       E
          1.000000000000000       0.000000000000000       0.000000000000000
          0.000000000000000       1.000000000000000       0.000000000000000
         -0.000000000000000       0.000000000000000       1.000000000000000
          0.000000000000000       0.000000000000000       0.000000000000000
# Symm. op. 2       I
         -1.000000000000000       0.000000000000000       0.000000000000000
          0.000000000000000      -1.000000000000000       0.000000000000000
          0.000000000000000       0.000000000000000      -1.000000000000000
         -0.000000000000000      -0.000000000000000      -0.000000000000000
# Symm. op. 3     2_1
         -1.000000000000000       0.000000000000000       0.000000000000000
          0.000000000000000       1.000000000000000       0.000000000000000
          0.000000000000000       0.000000000000000      -1.000000000000000
          0.500000000000000       0.500000000000000       0.500000000000000
# Symm. op. 4       n
          1.000000000000000       0.000000000000000       0.000000000000000
          0.000000000000000      -1.000000000000000       0.000000000000000
         -0.000000000000000       0.000000000000000       1.000000000000000
          0.500000000000000       0.500000000000000       0.500000000000000
# Symm. op. 5       E
          1.000000000000000       0.000000000000000       0.000000000000000
          0.000000000000000       1.000000000000000       0.000000000000000
         -0.000000000000000       0.000000000000000       1.000000000000000
          0.500000000000000       0.500000000000000       0.000000000000000
# Symm. op. 6       I
         -1.000000000000000       0.000000000000000       0.000000000000000
          0.000000000000000      -1.000000000000000       0.000000000000000
          0.000000000000000       0.000000000000000      -1.000000000000000
          0.500000000000000       0.500000000000000      -0.000000000000000
# Symm. op. 7       2
         -1.000000000000000       0.000000000000000       0.000000000000000
          0.000000000000000       1.000000000000000       0.000000000000000
          0.000000000000000       0.000000000000000      -1.000000000000000
         -0.000000000000000       0.000000000000000       0.500000000000000
# Symm. op. 8       c
          1.000000000000000       0.000000000000000       0.000000000000000
          0.000000000000000      -1.000000000000000       0.000000000000000
         -0.000000000000000       0.000000000000000       1.000000000000000
          0.000000000000000      -0.000000000000000       0.500000000000000
%ENDBLOCK symmetry_ops

kpoint_mp_grid :    2   2   2

phonon_kpoint_mp_grid :    1   1   1

%BLOCK external_pressure
   GPA
       270.00000000      0.00000000      0.00000000
       270.00000000      0.00000000
       270.00000000
%ENDBLOCK external_pressure

