# CELL file written 14:55:55 (GMT+1.0) 30th July 2020 from run C2c

%BLOCK lattice_cart
   ANG
       5.07178616850967        0.00000000000000      -0.209950467539388E-01
       0.00000000000000        2.76253607947427        0.00000000000000    
      -3.38110199453687        0.00000000000000        2.88712818935663    
%ENDBLOCK lattice_cart

%BLOCK cell_constraints
      1   2   3
      0   5   0
%ENDBLOCK cell_constraints

%BLOCK positions_frac
   H              0.174996480431569      -0.101419669681429       0.250838241523087
   H              0.341002554351905       0.114236194043687       0.250386888926100
   H              0.500000000000000       0.119895358994519       0.750000000000000
   H              0.500000000000000       0.405106300329787       0.750000000000000
   H              0.825003519568431      -0.101419669681429       0.249161758476913
   H              0.658997445648095       0.114236194043687       0.249613111073900
   H              0.674996480431569       0.398580330318571       0.250838241523087
   H              0.841002554351905       0.614236194043687       0.250386888926100
   H             -0.000000000000000       0.619895358994519       0.750000000000000
   H              0.000000000000000       0.905106300329787       0.750000000000000
   H              0.325003519568431       0.398580330318571       0.249161758476913
   H              0.158997445648095       0.614236194043687       0.249613111073900
   H              0.325003519568431       0.601419669681429       0.749161758476913
   H              0.158997445648095       0.385763805956313       0.749613111073899
   H              0.000000000000000       0.380104641005481       0.250000000000000
   H             -0.000000000000000       0.094893699670213       0.250000000000000
   H              0.674996480431569       0.601419669681429       0.750838241523087
   H              0.841002554351905       0.385763805956313       0.750386888926101
   H              0.825003519568431       1.101419669681427       0.749161758476913
   H              0.658997445648095       0.885763805956313       0.749613111073899
   H              0.500000000000000       0.880104641005481       0.250000000000000
   H              0.500000000000000       0.594893699670213       0.250000000000000
   H              0.174996480431569       1.101419669681427       0.750838241523087
   H              0.341002554351905       0.885763805956313       0.750386888926101
%ENDBLOCK positions_frac

FIX_COM : true

%BLOCK species_mass
   AMU
   H          2.014101778    
%ENDBLOCK species_mass

%BLOCK species_gamma
   radsectesla
   H          267522128.0    
%ENDBLOCK species_gamma

%BLOCK species_pot
   H       1|0.6|13|15|17|10(qc=8)
%ENDBLOCK species_pot

SYMMETRY_TOL :     0.001000

%BLOCK symmetry_ops
# Symm. op. 1       E
          1.000000000000000       0.000000000000000       0.000000000000000
          0.000000000000000       1.000000000000000       0.000000000000000
         -0.000000000000000       0.000000000000000       1.000000000000000
          0.000000000000000       0.000000000000000       0.000000000000000
# Symm. op. 2       I
         -1.000000000000000       0.000000000000000       0.000000000000000
          0.000000000000000      -1.000000000000000       0.000000000000000
          0.000000000000000       0.000000000000000      -1.000000000000000
         -0.000000000000000      -0.000000000000000      -0.000000000000000
# Symm. op. 3     2_1
         -1.000000000000000       0.000000000000000       0.000000000000000
          0.000000000000000       1.000000000000000       0.000000000000000
          0.000000000000000       0.000000000000000      -1.000000000000000
          0.500000000000000       0.500000000000000       0.500000000000000
# Symm. op. 4       n
          1.000000000000000       0.000000000000000       0.000000000000000
          0.000000000000000      -1.000000000000000       0.000000000000000
         -0.000000000000000       0.000000000000000       1.000000000000000
          0.500000000000000       0.500000000000000       0.500000000000000
# Symm. op. 5       E
          1.000000000000000       0.000000000000000       0.000000000000000
          0.000000000000000       1.000000000000000       0.000000000000000
         -0.000000000000000       0.000000000000000       1.000000000000000
          0.500000000000000       0.500000000000000       0.000000000000000
# Symm. op. 6       I
         -1.000000000000000       0.000000000000000       0.000000000000000
          0.000000000000000      -1.000000000000000       0.000000000000000
          0.000000000000000       0.000000000000000      -1.000000000000000
          0.500000000000000       0.500000000000000      -0.000000000000000
# Symm. op. 7       2
         -1.000000000000000       0.000000000000000       0.000000000000000
          0.000000000000000       1.000000000000000       0.000000000000000
          0.000000000000000       0.000000000000000      -1.000000000000000
         -0.000000000000000       0.000000000000000       0.500000000000000
# Symm. op. 8       c
          1.000000000000000       0.000000000000000       0.000000000000000
          0.000000000000000      -1.000000000000000       0.000000000000000
         -0.000000000000000       0.000000000000000       1.000000000000000
          0.000000000000000      -0.000000000000000       0.500000000000000
%ENDBLOCK symmetry_ops

kpoint_mp_grid :    2   2   2

phonon_kpoint_mp_grid :    1   1   1

%BLOCK external_pressure
   GPA
       210.00000000      0.00000000      0.00000000
       210.00000000      0.00000000
       210.00000000
%ENDBLOCK external_pressure

