# CELL file written 14:59:27 (GMT+1.0) 30th July 2020 from run C2c

%BLOCK lattice_cart
   ANG
       5.31343263214903        0.00000000000000      -0.195967305388107E-01
       0.00000000000000        2.86813387228479        0.00000000000000    
      -3.54086618750789        0.00000000000000        3.01591540998640    
%ENDBLOCK lattice_cart

%BLOCK cell_constraints
      1   2   3
      0   5   0
%ENDBLOCK cell_constraints

%BLOCK positions_frac
   H              0.166665304757711      -0.113227587383989       0.250000184501613
   H              0.333333902432335       0.113226989390624       0.249999762490074
   H              0.500000000000000       0.113226316777811       0.750000000000000
   H              0.500000000000000       0.386772506347546       0.750000000000000
   H              0.833334695242289      -0.113227587383989       0.249999815498387
   H              0.666666097567665       0.113226989390624       0.250000237509926
   H              0.666665304757711       0.386772412616012       0.250000184501613
   H              0.833333902432335       0.613226989390624       0.249999762490074
   H              0.000000000000000       0.613226316777812       0.750000000000000
   H              0.000000000000000       0.886772506347547       0.750000000000000
   H              0.333334695242288       0.386772412616012       0.249999815498387
   H              0.166666097567665       0.613226989390624       0.250000237509926
   H              0.333334695242288       0.613227587383988       0.749999815498387
   H              0.166666097567665       0.386773010609376       0.750000237509925
   H             -0.000000000000000       0.386773683222188       0.250000000000000
   H             -0.000000000000000       0.113227493652454       0.250000000000000
   H              0.666665304757711       0.613227587383988       0.750000184501613
   H              0.833333902432335       0.386773010609376       0.749999762490075
   H              0.833334695242289       1.113227587383987       0.749999815498387
   H              0.666666097567665       0.886773010609376       0.750000237509925
   H              0.500000000000000       0.886773683222188       0.250000000000000
   H              0.500000000000000       0.613227493652453       0.250000000000000
   H              0.166665304757711       1.113227587383987       0.750000184501613
   H              0.333333902432335       0.886773010609376       0.749999762490075
%ENDBLOCK positions_frac

FIX_COM : true

%BLOCK species_mass
   AMU
   H          2.014101778    
%ENDBLOCK species_mass

%BLOCK species_gamma
   radsectesla
   H          267522128.0    
%ENDBLOCK species_gamma

%BLOCK species_pot
   H       1|0.6|13|15|17|10(qc=8)
%ENDBLOCK species_pot

SYMMETRY_TOL :     0.001000

%BLOCK symmetry_ops
# Symm. op. 1       E
          1.000000000000000       0.000000000000000       0.000000000000000
          0.000000000000000       1.000000000000000       0.000000000000000
         -0.000000000000000       0.000000000000000       1.000000000000000
          0.000000000000000       0.000000000000000       0.000000000000000
# Symm. op. 2       I
         -1.000000000000000       0.000000000000000       0.000000000000000
          0.000000000000000      -1.000000000000000       0.000000000000000
          0.000000000000000       0.000000000000000      -1.000000000000000
         -0.000000000000000      -0.000000000000000      -0.000000000000000
# Symm. op. 3     2_1
         -1.000000000000000       0.000000000000000       0.000000000000000
          0.000000000000000       1.000000000000000       0.000000000000000
          0.000000000000000       0.000000000000000      -1.000000000000000
          0.500000000000000       0.500000000000000       0.500000000000000
# Symm. op. 4       n
          1.000000000000000       0.000000000000000       0.000000000000000
          0.000000000000000      -1.000000000000000       0.000000000000000
         -0.000000000000000       0.000000000000000       1.000000000000000
          0.500000000000000       0.500000000000000       0.500000000000000
# Symm. op. 5       E
          1.000000000000000       0.000000000000000       0.000000000000000
          0.000000000000000       1.000000000000000       0.000000000000000
         -0.000000000000000       0.000000000000000       1.000000000000000
          0.500000000000000       0.500000000000000       0.000000000000000
# Symm. op. 6       I
         -1.000000000000000       0.000000000000000       0.000000000000000
          0.000000000000000      -1.000000000000000       0.000000000000000
          0.000000000000000       0.000000000000000      -1.000000000000000
          0.500000000000000       0.500000000000000      -0.000000000000000
# Symm. op. 7       2
         -1.000000000000000       0.000000000000000       0.000000000000000
          0.000000000000000       1.000000000000000       0.000000000000000
          0.000000000000000       0.000000000000000      -1.000000000000000
         -0.000000000000000       0.000000000000000       0.500000000000000
# Symm. op. 8       c
          1.000000000000000       0.000000000000000       0.000000000000000
          0.000000000000000      -1.000000000000000       0.000000000000000
         -0.000000000000000       0.000000000000000       1.000000000000000
          0.000000000000000      -0.000000000000000       0.500000000000000
%ENDBLOCK symmetry_ops

kpoint_mp_grid :    2   2   2

phonon_kpoint_mp_grid :    1   1   1

%BLOCK external_pressure
   GPA
       150.00000000      0.00000000      0.00000000
       150.00000000      0.00000000
       150.00000000
%ENDBLOCK external_pressure

