# CELL file written 15:00:59 (GMT+1.0) 30th July 2020 from run C2c

%BLOCK lattice_cart
   ANG
       5.48417754440635        0.00000000000000      -0.181837206684905E-01
       0.00000000000000        2.93989079484462        0.00000000000000    
      -3.65353901845954        0.00000000000000        3.09980039887215    
%ENDBLOCK lattice_cart

%BLOCK cell_constraints
      1   2   3
      0   5   0
%ENDBLOCK cell_constraints

%BLOCK positions_frac
   H              0.166666692991788      -0.117387347950322       0.249999211998216
   H              0.333332765861079       0.117386959418597       0.250000758615324
   H              0.500000000000000       0.117387054388113       0.750000000000000
   H              0.500000000000000       0.382612176596519       0.750000000000000
   H              0.833333307008212      -0.117387347950322       0.250000788001783
   H              0.666667234138921       0.117386959418597       0.249999241384676
   H              0.666666692991788       0.382612652049679       0.249999211998216
   H              0.833332765861079       0.617386959418597       0.250000758615324
   H              0.000000000000000       0.617387054388114       0.750000000000000
   H              0.000000000000000       0.882612176596520       0.750000000000000
   H              0.333333307008211       0.382612652049679       0.250000788001783
   H              0.166667234138921       0.617386959418597       0.249999241384676
   H              0.333333307008211       0.617387347950321       0.750000788001784
   H              0.166667234138921       0.382613040581403       0.749999241384675
   H             -0.000000000000000       0.382612945611886       0.250000000000000
   H             -0.000000000000000       0.117387823403481       0.250000000000000
   H              0.666666692991788       0.617387347950321       0.749999211998216
   H              0.833332765861079       0.382613040581403       0.750000758615325
   H              0.833333307008212       1.117387347950320       0.750000788001784
   H              0.666667234138921       0.882613040581403       0.749999241384675
   H              0.500000000000000       0.882612945611886       0.250000000000000
   H              0.500000000000000       0.617387823403480       0.250000000000000
   H              0.166666692991788       1.117387347950320       0.749999211998216
   H              0.333332765861079       0.882613040581403       0.750000758615325
%ENDBLOCK positions_frac

FIX_COM : true

%BLOCK species_mass
   AMU
   H          2.014101778    
%ENDBLOCK species_mass

%BLOCK species_gamma
   radsectesla
   H          267522128.0    
%ENDBLOCK species_gamma

%BLOCK species_pot
   H       1|0.6|13|15|17|10(qc=8)
%ENDBLOCK species_pot

SYMMETRY_TOL :     0.001000

%BLOCK symmetry_ops
# Symm. op. 1       E
          1.000000000000000       0.000000000000000       0.000000000000000
          0.000000000000000       1.000000000000000       0.000000000000000
         -0.000000000000000       0.000000000000000       1.000000000000000
          0.000000000000000       0.000000000000000       0.000000000000000
# Symm. op. 2       I
         -1.000000000000000       0.000000000000000       0.000000000000000
          0.000000000000000      -1.000000000000000       0.000000000000000
          0.000000000000000       0.000000000000000      -1.000000000000000
         -0.000000000000000      -0.000000000000000      -0.000000000000000
# Symm. op. 3     2_1
         -1.000000000000000       0.000000000000000       0.000000000000000
          0.000000000000000       1.000000000000000       0.000000000000000
          0.000000000000000       0.000000000000000      -1.000000000000000
          0.500000000000000       0.500000000000000       0.500000000000000
# Symm. op. 4       n
          1.000000000000000       0.000000000000000       0.000000000000000
          0.000000000000000      -1.000000000000000       0.000000000000000
         -0.000000000000000       0.000000000000000       1.000000000000000
          0.500000000000000       0.500000000000000       0.500000000000000
# Symm. op. 5       E
          1.000000000000000       0.000000000000000       0.000000000000000
          0.000000000000000       1.000000000000000       0.000000000000000
         -0.000000000000000       0.000000000000000       1.000000000000000
          0.500000000000000       0.500000000000000       0.000000000000000
# Symm. op. 6       I
         -1.000000000000000       0.000000000000000       0.000000000000000
          0.000000000000000      -1.000000000000000       0.000000000000000
          0.000000000000000       0.000000000000000      -1.000000000000000
          0.500000000000000       0.500000000000000      -0.000000000000000
# Symm. op. 7       2
         -1.000000000000000       0.000000000000000       0.000000000000000
          0.000000000000000       1.000000000000000       0.000000000000000
          0.000000000000000       0.000000000000000      -1.000000000000000
         -0.000000000000000       0.000000000000000       0.500000000000000
# Symm. op. 8       c
          1.000000000000000       0.000000000000000       0.000000000000000
          0.000000000000000      -1.000000000000000       0.000000000000000
         -0.000000000000000       0.000000000000000       1.000000000000000
          0.000000000000000      -0.000000000000000       0.500000000000000
%ENDBLOCK symmetry_ops

kpoint_mp_grid :    2   2   2

phonon_kpoint_mp_grid :    1   1   1

%BLOCK external_pressure
   GPA
       120.00000000      0.00000000      0.00000000
       120.00000000      0.00000000
       120.00000000
%ENDBLOCK external_pressure

