# CELL file written 15:04:59 (GMT+1.0) 30th July 2020 from run C2c

%BLOCK lattice_cart
   ANG
       6.07773766901320        0.00000000000000      -0.128833922863560E-01
       0.00000000000000        3.17937302726596        0.00000000000000    
      -4.04513335300809        0.00000000000000        3.34948040800291    
%ENDBLOCK lattice_cart

%BLOCK cell_constraints
      1   2   3
      0   5   0
%ENDBLOCK cell_constraints

%BLOCK positions_frac
   H              0.166666609459224      -0.129930066800733       0.250000002747383
   H              0.333333278609824       0.129930000207706       0.250000000326930
   H              0.500000000000000       0.129929964635625       0.750000000000000
   H              0.500000000000000       0.370069903611828       0.750000000000000
   H              0.833333390540776      -0.129930066800733       0.249999997252615
   H              0.666666721390176       0.129930000207706       0.249999999673069
   H              0.666666609459224       0.370069933199268       0.250000002747383
   H              0.833333278609824       0.629930000207706       0.250000000326930
   H              0.000000000000000       0.629929964635626       0.750000000000000
   H              0.000000000000000       0.870069903611829       0.750000000000000
   H              0.333333390540775       0.370069933199268       0.249999997252615
   H              0.166666721390176       0.629930000207706       0.249999999673069
   H              0.333333390540775       0.629930066800732       0.749999997252616
   H              0.166666721390176       0.370069999792294       0.749999999673069
   H              0.000000000000000       0.370070035364374       0.250000000000000
   H              0.000000000000000       0.129930096388172       0.250000000000000
   H              0.666666609459224       0.629930066800732       0.750000002747384
   H              0.833333278609824       0.370069999792294       0.750000000326931
   H              0.833333390540776       1.129930066800731       0.749999997252616
   H              0.666666721390176       0.870069999792294       0.749999999673069
   H              0.500000000000000       0.870070035364374       0.250000000000000
   H              0.500000000000000       0.629930096388171       0.250000000000000
   H              0.166666609459224       1.129930066800731       0.750000002747384
   H              0.333333278609824       0.870069999792294       0.750000000326931
%ENDBLOCK positions_frac

FIX_COM : true

%BLOCK species_mass
   AMU
   H          2.014101778    
%ENDBLOCK species_mass

%BLOCK species_gamma
   radsectesla
   H          267522128.0    
%ENDBLOCK species_gamma

%BLOCK species_pot
   H       1|0.6|13|15|17|10(qc=8)
%ENDBLOCK species_pot

SYMMETRY_TOL :     0.001000

%BLOCK symmetry_ops
# Symm. op. 1       E
          1.000000000000000       0.000000000000000       0.000000000000000
          0.000000000000000       1.000000000000000       0.000000000000000
         -0.000000000000000       0.000000000000000       1.000000000000000
          0.000000000000000       0.000000000000000       0.000000000000000
# Symm. op. 2       I
         -1.000000000000000       0.000000000000000       0.000000000000000
          0.000000000000000      -1.000000000000000       0.000000000000000
          0.000000000000000       0.000000000000000      -1.000000000000000
         -0.000000000000000      -0.000000000000000      -0.000000000000000
# Symm. op. 3     2_1
         -1.000000000000000       0.000000000000000       0.000000000000000
          0.000000000000000       1.000000000000000       0.000000000000000
          0.000000000000000       0.000000000000000      -1.000000000000000
          0.500000000000000       0.500000000000000       0.500000000000000
# Symm. op. 4       n
          1.000000000000000       0.000000000000000       0.000000000000000
          0.000000000000000      -1.000000000000000       0.000000000000000
         -0.000000000000000       0.000000000000000       1.000000000000000
          0.500000000000000       0.500000000000000       0.500000000000000
# Symm. op. 5       E
          1.000000000000000       0.000000000000000       0.000000000000000
          0.000000000000000       1.000000000000000       0.000000000000000
         -0.000000000000000       0.000000000000000       1.000000000000000
          0.500000000000000       0.500000000000000       0.000000000000000
# Symm. op. 6       I
         -1.000000000000000       0.000000000000000       0.000000000000000
          0.000000000000000      -1.000000000000000       0.000000000000000
          0.000000000000000       0.000000000000000      -1.000000000000000
          0.500000000000000       0.500000000000000      -0.000000000000000
# Symm. op. 7       2
         -1.000000000000000       0.000000000000000       0.000000000000000
          0.000000000000000       1.000000000000000       0.000000000000000
          0.000000000000000       0.000000000000000      -1.000000000000000
         -0.000000000000000       0.000000000000000       0.500000000000000
# Symm. op. 8       c
          1.000000000000000       0.000000000000000       0.000000000000000
          0.000000000000000      -1.000000000000000       0.000000000000000
         -0.000000000000000       0.000000000000000       1.000000000000000
          0.000000000000000      -0.000000000000000       0.500000000000000
%ENDBLOCK symmetry_ops

kpoint_mp_grid :    2   2   2

phonon_kpoint_mp_grid :    1   1   1

%BLOCK external_pressure
   GPA
        60.00000000      0.00000000      0.00000000
        60.00000000      0.00000000
        60.00000000
%ENDBLOCK external_pressure

