# CELL file written 14:53:49 (GMT+1.0) 30th July 2020 from run C2c

%BLOCK lattice_cart
   ANG
       4.97690843168661        0.00000000000000      -0.214235845987582E-01
       0.00000000000000        2.71987374537635        0.00000000000000    
      -3.31830412354805        0.00000000000000        2.83679784063003    
%ENDBLOCK lattice_cart

%BLOCK cell_constraints
      1   2   3
      0   5   0
%ENDBLOCK cell_constraints

%BLOCK positions_frac
   H              0.181420083029648      -0.094935115260960       0.251632483048028
   H              0.346322233700579       0.118180682168590       0.250499907800852
   H              0.500000000000000       0.127004536580721       0.750000000000000
   H              0.500000000000000       0.416310935035988       0.750000000000000
   H              0.818579916970352      -0.094935115260960       0.248367516951972
   H              0.653677766299421       0.118180682168590       0.249500092199148
   H              0.681420083029648       0.405064884739040       0.251632483048028
   H              0.846322233700579       0.618180682168590       0.250499907800852
   H              0.000000000000000       0.627004536580721       0.750000000000000
   H             -0.000000000000000       0.916310935035988       0.750000000000000
   H              0.318579916970352       0.405064884739040       0.248367516951972
   H              0.153677766299421       0.618180682168590       0.249500092199148
   H              0.318579916970352       0.594935115260960       0.748367516951972
   H              0.153677766299421       0.381819317831410       0.749500092199147
   H              0.000000000000000       0.372995463419279       0.250000000000000
   H             -0.000000000000000       0.083689064964012       0.250000000000000
   H              0.681420083029648       0.594935115260960       0.751632483048028
   H              0.846322233700579       0.381819317831410       0.750499907800853
   H              0.818579916970352       1.094935115260959       0.748367516951972
   H              0.653677766299421       0.881819317831410       0.749500092199147
   H              0.500000000000000       0.872995463419279       0.250000000000000
   H              0.500000000000000       0.583689064964012       0.250000000000000
   H              0.181420083029648       1.094935115260959       0.751632483048028
   H              0.346322233700579       0.881819317831410       0.750499907800853
%ENDBLOCK positions_frac

FIX_COM : true

%BLOCK species_mass
   AMU
   H          2.014101778    
%ENDBLOCK species_mass

%BLOCK species_gamma
   radsectesla
   H          267522128.0    
%ENDBLOCK species_gamma

%BLOCK species_pot
   H       1|0.6|13|15|17|10(qc=8)
%ENDBLOCK species_pot

SYMMETRY_TOL :     0.001000

%BLOCK symmetry_ops
# Symm. op. 1       E
          1.000000000000000       0.000000000000000       0.000000000000000
          0.000000000000000       1.000000000000000       0.000000000000000
         -0.000000000000000       0.000000000000000       1.000000000000000
          0.000000000000000       0.000000000000000       0.000000000000000
# Symm. op. 2       I
         -1.000000000000000       0.000000000000000       0.000000000000000
          0.000000000000000      -1.000000000000000       0.000000000000000
          0.000000000000000       0.000000000000000      -1.000000000000000
         -0.000000000000000      -0.000000000000000      -0.000000000000000
# Symm. op. 3     2_1
         -1.000000000000000       0.000000000000000       0.000000000000000
          0.000000000000000       1.000000000000000       0.000000000000000
          0.000000000000000       0.000000000000000      -1.000000000000000
          0.500000000000000       0.500000000000000       0.500000000000000
# Symm. op. 4       n
          1.000000000000000       0.000000000000000       0.000000000000000
          0.000000000000000      -1.000000000000000       0.000000000000000
         -0.000000000000000       0.000000000000000       1.000000000000000
          0.500000000000000       0.500000000000000       0.500000000000000
# Symm. op. 5       E
          1.000000000000000       0.000000000000000       0.000000000000000
          0.000000000000000       1.000000000000000       0.000000000000000
         -0.000000000000000       0.000000000000000       1.000000000000000
          0.500000000000000       0.500000000000000       0.000000000000000
# Symm. op. 6       I
         -1.000000000000000       0.000000000000000       0.000000000000000
          0.000000000000000      -1.000000000000000       0.000000000000000
          0.000000000000000       0.000000000000000      -1.000000000000000
          0.500000000000000       0.500000000000000      -0.000000000000000
# Symm. op. 7       2
         -1.000000000000000       0.000000000000000       0.000000000000000
          0.000000000000000       1.000000000000000       0.000000000000000
          0.000000000000000       0.000000000000000      -1.000000000000000
         -0.000000000000000       0.000000000000000       0.500000000000000
# Symm. op. 8       c
          1.000000000000000       0.000000000000000       0.000000000000000
          0.000000000000000      -1.000000000000000       0.000000000000000
         -0.000000000000000       0.000000000000000       1.000000000000000
          0.000000000000000      -0.000000000000000       0.500000000000000
%ENDBLOCK symmetry_ops

kpoint_mp_grid :    2   2   2

phonon_kpoint_mp_grid :    1   1   1

%BLOCK external_pressure
   GPA
       240.00000000      0.00000000      0.00000000
       240.00000000      0.00000000
       240.00000000
%ENDBLOCK external_pressure

