# CELL file written 14:50:24 (GMT+1.0) 30th July 2020 from run C2c

%BLOCK lattice_cart
   ANG
       4.82361468252245        0.00000000000000      -0.218246301905570E-01
       0.00000000000000        2.64873331073919        0.00000000000000    
      -3.21668964429249        0.00000000000000        2.75225305196976    
%ENDBLOCK lattice_cart

%BLOCK cell_constraints
      1   2   3
      0   5   0
%ENDBLOCK cell_constraints

%BLOCK positions_frac
   H              0.188622005189602      -0.086078835170663       0.252401270901750
   H              0.352298214776692       0.123018278998010       0.250810663314203
   H              0.500000000000000       0.133873939238245       0.750000000000000
   H              0.500000000000000       0.429410718774704       0.750000000000000
   H              0.811377994810398      -0.086078835170663       0.247598729098250
   H              0.647701785223308       0.123018278998010       0.249189336685797
   H              0.688622005189602       0.413921164829337       0.252401270901750
   H              0.852298214776692       0.623018278998010       0.250810663314203
   H             -0.000000000000000       0.633873939238245       0.750000000000000
   H              0.000000000000000       0.929410718774704       0.750000000000000
   H              0.311377994810398       0.413921164829337       0.247598729098250
   H              0.147701785223308       0.623018278998010       0.249189336685797
   H              0.311377994810398       0.586078835170663       0.747598729098250
   H              0.147701785223308       0.376981721001990       0.749189336685796
   H              0.000000000000000       0.366126060761755       0.250000000000000
   H              0.000000000000000       0.070589281225296       0.250000000000000
   H              0.688622005189602       0.586078835170663       0.752401270901750
   H              0.852298214776692       0.376981721001990       0.750810663314204
   H              0.811377994810398       1.086078835170663       0.747598729098250
   H              0.647701785223308       0.876981721001990       0.749189336685796
   H              0.500000000000000       0.866126060761755       0.250000000000000
   H              0.500000000000000       0.570589281225296       0.250000000000000
   H              0.188622005189602       1.086078835170663       0.752401270901750
   H              0.352298214776692       0.876981721001990       0.750810663314204
%ENDBLOCK positions_frac

FIX_COM : true

%BLOCK species_mass
   AMU
   H          2.014101778    
%ENDBLOCK species_mass

%BLOCK species_gamma
   radsectesla
   H          267522128.0    
%ENDBLOCK species_gamma

%BLOCK species_pot
   H       1|0.6|13|15|17|10(qc=8)
%ENDBLOCK species_pot

SYMMETRY_TOL :     0.001000

%BLOCK symmetry_ops
# Symm. op. 1       E
          1.000000000000000       0.000000000000000       0.000000000000000
          0.000000000000000       1.000000000000000       0.000000000000000
         -0.000000000000000       0.000000000000000       1.000000000000000
          0.000000000000000       0.000000000000000       0.000000000000000
# Symm. op. 2       I
         -1.000000000000000       0.000000000000000       0.000000000000000
          0.000000000000000      -1.000000000000000       0.000000000000000
          0.000000000000000       0.000000000000000      -1.000000000000000
         -0.000000000000000      -0.000000000000000      -0.000000000000000
# Symm. op. 3     2_1
         -1.000000000000000       0.000000000000000       0.000000000000000
          0.000000000000000       1.000000000000000       0.000000000000000
          0.000000000000000       0.000000000000000      -1.000000000000000
          0.500000000000000       0.500000000000000       0.500000000000000
# Symm. op. 4       n
          1.000000000000000       0.000000000000000       0.000000000000000
          0.000000000000000      -1.000000000000000       0.000000000000000
         -0.000000000000000       0.000000000000000       1.000000000000000
          0.500000000000000       0.500000000000000       0.500000000000000
# Symm. op. 5       E
          1.000000000000000       0.000000000000000       0.000000000000000
          0.000000000000000       1.000000000000000       0.000000000000000
         -0.000000000000000       0.000000000000000       1.000000000000000
          0.500000000000000       0.500000000000000       0.000000000000000
# Symm. op. 6       I
         -1.000000000000000       0.000000000000000       0.000000000000000
          0.000000000000000      -1.000000000000000       0.000000000000000
          0.000000000000000       0.000000000000000      -1.000000000000000
          0.500000000000000       0.500000000000000      -0.000000000000000
# Symm. op. 7       2
         -1.000000000000000       0.000000000000000       0.000000000000000
          0.000000000000000       1.000000000000000       0.000000000000000
          0.000000000000000       0.000000000000000      -1.000000000000000
         -0.000000000000000       0.000000000000000       0.500000000000000
# Symm. op. 8       c
          1.000000000000000       0.000000000000000       0.000000000000000
          0.000000000000000      -1.000000000000000       0.000000000000000
         -0.000000000000000       0.000000000000000       1.000000000000000
          0.000000000000000      -0.000000000000000       0.500000000000000
%ENDBLOCK symmetry_ops

kpoint_mp_grid :    2   2   2

phonon_kpoint_mp_grid :    1   1   1

%BLOCK external_pressure
   GPA
       300.00000000      0.00000000      0.00000000
       300.00000000      0.00000000
       300.00000000
%ENDBLOCK external_pressure

