# CELL file written 15:09:09 (GMT+1.0) 30th July 2020 from run C2c

%BLOCK lattice_cart
   ANG
       6.75466378885357        0.00000000000000      -0.919816790187377E-02
       0.00000000000000        3.43985710448959        0.00000000000000    
      -4.49313167923701        0.00000000000000        3.58983131625193    
%ENDBLOCK lattice_cart

%BLOCK cell_constraints
      1   2   3
      0   5   0
%ENDBLOCK cell_constraints

%BLOCK positions_frac
   H              0.166670415068374      -0.140520277179500       0.250005544273416
   H              0.333329550391440       0.140520266224886       0.249994463050555
   H              0.500000000000000       0.140520127588376       0.750000000000000
   H              0.500000000000000       0.359479851435579       0.750000000000000
   H              0.833329584931626      -0.140520277179500       0.249994455726582
   H              0.666670449608560       0.140520266224886       0.250005536949444
   H              0.666670415068374       0.359479722820501       0.250005544273416
   H              0.833329550391440       0.640520266224886       0.249994463050555
   H              0.000000000000000       0.640520127588377       0.750000000000000
   H             -0.000000000000000       0.859479851435580       0.750000000000000
   H              0.333329584931625       0.359479722820501       0.249994455726582
   H              0.166670449608560       0.640520266224886       0.250005536949444
   H              0.333329584931625       0.640520277179499       0.749994455726583
   H              0.166670449608560       0.359479733775114       0.750005536949444
   H             -0.000000000000000       0.359479872411623       0.250000000000000
   H              0.000000000000000       0.140520148564421       0.250000000000000
   H              0.666670415068374       0.640520277179499       0.750005544273417
   H              0.833329550391440       0.359479733775114       0.749994463050556
   H              0.833329584931626       1.140520277179499       0.749994455726583
   H              0.666670449608560       0.859479733775114       0.750005536949444
   H              0.500000000000000       0.859479872411623       0.250000000000000
   H              0.500000000000000       0.640520148564420       0.250000000000000
   H              0.166670415068374       1.140520277179499       0.750005544273417
   H              0.333329550391440       0.859479733775114       0.749994463050556
%ENDBLOCK positions_frac

FIX_COM : true

%BLOCK species_mass
   AMU
   H          2.014101778    
%ENDBLOCK species_mass

%BLOCK species_gamma
   radsectesla
   H          267522128.0    
%ENDBLOCK species_gamma

%BLOCK species_pot
   H       1|0.6|13|15|17|10(qc=8)
%ENDBLOCK species_pot

SYMMETRY_TOL :     0.001000

%BLOCK symmetry_ops
# Symm. op. 1       E
          1.000000000000000       0.000000000000000       0.000000000000000
          0.000000000000000       1.000000000000000       0.000000000000000
         -0.000000000000000       0.000000000000000       1.000000000000000
          0.000000000000000       0.000000000000000       0.000000000000000
# Symm. op. 2       I
         -1.000000000000000       0.000000000000000       0.000000000000000
          0.000000000000000      -1.000000000000000       0.000000000000000
          0.000000000000000       0.000000000000000      -1.000000000000000
         -0.000000000000000      -0.000000000000000      -0.000000000000000
# Symm. op. 3     2_1
         -1.000000000000000       0.000000000000000       0.000000000000000
          0.000000000000000       1.000000000000000       0.000000000000000
          0.000000000000000       0.000000000000000      -1.000000000000000
          0.500000000000000       0.500000000000000       0.500000000000000
# Symm. op. 4       n
          1.000000000000000       0.000000000000000       0.000000000000000
          0.000000000000000      -1.000000000000000       0.000000000000000
         -0.000000000000000       0.000000000000000       1.000000000000000
          0.500000000000000       0.500000000000000       0.500000000000000
# Symm. op. 5       E
          1.000000000000000       0.000000000000000       0.000000000000000
          0.000000000000000       1.000000000000000       0.000000000000000
         -0.000000000000000       0.000000000000000       1.000000000000000
          0.500000000000000       0.500000000000000       0.000000000000000
# Symm. op. 6       I
         -1.000000000000000       0.000000000000000       0.000000000000000
          0.000000000000000      -1.000000000000000       0.000000000000000
          0.000000000000000       0.000000000000000      -1.000000000000000
          0.500000000000000       0.500000000000000      -0.000000000000000
# Symm. op. 7       2
         -1.000000000000000       0.000000000000000       0.000000000000000
          0.000000000000000       1.000000000000000       0.000000000000000
          0.000000000000000       0.000000000000000      -1.000000000000000
         -0.000000000000000       0.000000000000000       0.500000000000000
# Symm. op. 8       c
          1.000000000000000       0.000000000000000       0.000000000000000
          0.000000000000000      -1.000000000000000       0.000000000000000
         -0.000000000000000       0.000000000000000       1.000000000000000
          0.000000000000000      -0.000000000000000       0.500000000000000
%ENDBLOCK symmetry_ops

kpoint_mp_grid :    2   2   2

phonon_kpoint_mp_grid :    1   1   1

%BLOCK external_pressure
   GPA
        30.00000000      0.00000000      0.00000000
        30.00000000      0.00000000
        30.00000000
%ENDBLOCK external_pressure

