|300,30,30|
# CELL file written 17:19:44 (GMT+1.0) 18th June 2020 from run C2c

%BLOCK lattice_cart
   ANG
       4.82965484845387        0.00000000000000      -0.217552488583650E-01
       0.00000000000000        2.65075807997893        0.00000000000000    
      -3.22067435040415        0.00000000000000        2.75306393913002    
%ENDBLOCK lattice_cart

%BLOCK cell_constraints
      1   2   3
      0   5   0
%ENDBLOCK cell_constraints

%BLOCK positions_frac
   H              0.188380243813855      -0.086626388121678       0.252374559875532
   H              0.352175561211520       0.122982785447640       0.250878886311758
   H              0.500000000000000       0.133825787795687       0.750000000000000
   H              0.500000000000000       0.428804720565106       0.750000000000000
   H              0.811619756186145      -0.086626388121678       0.247625440124468
   H              0.647824438788480       0.122982785447640       0.249121113688242
   H              0.688380243813855       0.413373611878322       0.252374559875532
   H              0.852175561211520       0.622982785447640       0.250878886311758
   H             -0.000000000000000       0.633825787795687       0.750000000000000
   H             -0.000000000000000       0.928804720565106       0.750000000000000
   H              0.311619756186145       0.413373611878322       0.247625440124468
   H              0.147824438788480       0.622982785447640       0.249121113688242
   H              0.311619756186145       0.586626388121678       0.747625440124468
   H              0.147824438788480       0.377017214552360       0.749121113688242
   H             -0.000000000000000       0.366174212204313       0.250000000000000
   H             -0.000000000000000       0.071195279434894       0.250000000000000
   H              0.688380243813855       0.586626388121678       0.752374559875532
   H              0.852175561211520       0.377017214552360       0.750878886311758
   H              0.811619756186145       1.086626388121678       0.747625440124468
   H              0.647824438788480       0.877017214552360       0.749121113688242
   H              0.500000000000000       0.866174212204313       0.250000000000000
   H              0.500000000000000       0.571195279434894       0.250000000000000
   H              0.188380243813855       1.086626388121678       0.752374559875532
   H              0.352175561211520       0.877017214552360       0.750878886311758
%ENDBLOCK positions_frac

%BLOCK species_mass
   H     2.014101778
%ENDBLOCK species_mass

FIX_COM : true

SYMMETRY_TOL :     0.001000

%BLOCK symmetry_ops
# Symm. op. 1       E
          1.000000000000000       0.000000000000000       0.000000000000000
          0.000000000000000       1.000000000000000       0.000000000000000
         -0.000000000000000       0.000000000000000       1.000000000000000
          0.000000000000000       0.000000000000000       0.000000000000000
# Symm. op. 2       I
         -1.000000000000000       0.000000000000000       0.000000000000000
          0.000000000000000      -1.000000000000000       0.000000000000000
          0.000000000000000       0.000000000000000      -1.000000000000000
         -0.000000000000000      -0.000000000000000      -0.000000000000000
# Symm. op. 3     2_1
         -1.000000000000000       0.000000000000000       0.000000000000000
          0.000000000000000       1.000000000000000       0.000000000000000
          0.000000000000000       0.000000000000000      -1.000000000000000
          0.500000000000000       0.500000000000000       0.500000000000000
# Symm. op. 4       n
          1.000000000000000       0.000000000000000       0.000000000000000
          0.000000000000000      -1.000000000000000       0.000000000000000
         -0.000000000000000       0.000000000000000       1.000000000000000
          0.500000000000000       0.500000000000000       0.500000000000000
# Symm. op. 5       E
          1.000000000000000       0.000000000000000       0.000000000000000
          0.000000000000000       1.000000000000000       0.000000000000000
         -0.000000000000000       0.000000000000000       1.000000000000000
          0.500000000000000       0.500000000000000       0.000000000000000
# Symm. op. 6       I
         -1.000000000000000       0.000000000000000       0.000000000000000
          0.000000000000000      -1.000000000000000       0.000000000000000
          0.000000000000000       0.000000000000000      -1.000000000000000
          0.500000000000000       0.500000000000000      -0.000000000000000
# Symm. op. 7       2
         -1.000000000000000       0.000000000000000       0.000000000000000
          0.000000000000000       1.000000000000000       0.000000000000000
          0.000000000000000       0.000000000000000      -1.000000000000000
         -0.000000000000000       0.000000000000000       0.500000000000000
# Symm. op. 8       c
          1.000000000000000       0.000000000000000       0.000000000000000
          0.000000000000000      -1.000000000000000       0.000000000000000
         -0.000000000000000       0.000000000000000       1.000000000000000
          0.000000000000000      -0.000000000000000       0.500000000000000
%ENDBLOCK symmetry_ops

kpoint_mp_grid :    2   2   2

phonon_kpoint_mp_grid :    1   1   1
