# CELL file written 17:01:22 (GMT+1.0) 25th July 2020 from run C2c

%BLOCK lattice_cart
   ANG
       4.90146205211979        0.00000000000000      -0.215750670511287E-01
       0.00000000000000        2.68422661717701        0.00000000000000    
      -3.26827748922797        0.00000000000000        2.79281661908125    
%ENDBLOCK lattice_cart

%BLOCK cell_constraints
      1   2   3
      0   5   0
%ENDBLOCK cell_constraints

%BLOCK positions_frac
   H              0.185097483883325      -0.090732377166392       0.252016040893869
   H              0.349432810318200       0.120647671111060       0.250666179258640
   H              0.500000000000000       0.130785176773491       0.750000000000000
   H              0.500000000000000       0.422964692191905       0.750000000000000
   H              0.814902516116674      -0.090732377166392       0.247983959106130
   H              0.650567189681800       0.120647671111060       0.249333820741360
   H              0.685097483883326       0.409267622833610       0.252016040893869
   H              0.849432810318200       0.620647671111061       0.250666179258640
   H              0.000000000000000       0.630785176773491       0.750000000000000
   H             -0.000000000000000       0.922964692191905       0.750000000000000
   H              0.314902516116675       0.409267622833610       0.247983959106130
   H              0.150567189681800       0.620647671111061       0.249333820741360
   H              0.314902516116675       0.590732377166392       0.747983959106130
   H              0.150567189681800       0.379352328888940       0.749333820741360
   H              0.000000000000000       0.369214823226509       0.250000000000000
   H              0.000000000000000       0.077035307808095       0.250000000000000
   H              0.685097483883326       0.590732377166392       0.752016040893870
   H              0.849432810318200       0.379352328888940       0.750666179258640
   H              0.814902516116674       1.090732377166392       0.747983959106130
   H              0.650567189681800       0.879352328888939       0.749333820741360
   H              0.500000000000000       0.869214823226509       0.250000000000000
   H              0.500000000000000       0.577035307808095       0.250000000000000
   H              0.185097483883325       1.090732377166392       0.752016040893870
   H              0.349432810318200       0.879352328888939       0.750666179258640
%ENDBLOCK positions_frac

FIX_COM : true

%BLOCK species_gamma
   radsectesla
   H          267522128.0    
%ENDBLOCK species_gamma

%BLOCK species_pot
   H       0|0.7|2|6|8|10L(qc=10)
%ENDBLOCK species_pot

SYMMETRY_TOL :     0.001000

%BLOCK symmetry_ops
# Symm. op. 1       E
          1.000000000000000       0.000000000000000       0.000000000000000
          0.000000000000000       1.000000000000000       0.000000000000000
         -0.000000000000000       0.000000000000000       1.000000000000000
          0.000000000000000       0.000000000000000       0.000000000000000
# Symm. op. 2       I
         -1.000000000000000       0.000000000000000       0.000000000000000
          0.000000000000000      -1.000000000000000       0.000000000000000
          0.000000000000000       0.000000000000000      -1.000000000000000
         -0.000000000000000      -0.000000000000000      -0.000000000000000
# Symm. op. 3     2_1
         -1.000000000000000       0.000000000000000       0.000000000000000
          0.000000000000000       1.000000000000000       0.000000000000000
          0.000000000000000       0.000000000000000      -1.000000000000000
          0.500000000000000       0.500000000000000       0.500000000000000
# Symm. op. 4       n
          1.000000000000000       0.000000000000000       0.000000000000000
          0.000000000000000      -1.000000000000000       0.000000000000000
         -0.000000000000000       0.000000000000000       1.000000000000000
          0.500000000000000       0.500000000000000       0.500000000000000
# Symm. op. 5       E
          1.000000000000000       0.000000000000000       0.000000000000000
          0.000000000000000       1.000000000000000       0.000000000000000
         -0.000000000000000       0.000000000000000       1.000000000000000
          0.500000000000000       0.500000000000000       0.000000000000000
# Symm. op. 6       I
         -1.000000000000000       0.000000000000000       0.000000000000000
          0.000000000000000      -1.000000000000000       0.000000000000000
          0.000000000000000       0.000000000000000      -1.000000000000000
          0.500000000000000       0.500000000000000      -0.000000000000000
# Symm. op. 7       2
         -1.000000000000000       0.000000000000000       0.000000000000000
          0.000000000000000       1.000000000000000       0.000000000000000
          0.000000000000000       0.000000000000000      -1.000000000000000
         -0.000000000000000       0.000000000000000       0.500000000000000
# Symm. op. 8       c
          1.000000000000000       0.000000000000000       0.000000000000000
          0.000000000000000      -1.000000000000000       0.000000000000000
         -0.000000000000000       0.000000000000000       1.000000000000000
          0.000000000000000      -0.000000000000000       0.500000000000000
%ENDBLOCK symmetry_ops

kpoint_mp_grid :    2   2   2

phonon_kpoint_mp_grid :    1   1   1



%BLOCK EXTERNAL_PRESSURE
GPA
260  0   0
    260  0
        260
%ENDBLOCK EXTERNAL_PRESSURE
