# CELL file written 17:14:52 (GMT+1.0) 25th July 2020 from run C2c

%BLOCK lattice_cart
   ANG
       4.92745776150860        0.00000000000000      -0.214447307506521E-01
       0.00000000000000        2.69621647289589        0.00000000000000    
      -3.28547435219499        0.00000000000000        2.80706525046825    
%ENDBLOCK lattice_cart

%BLOCK cell_constraints
      1   2   3
      0   5   0
%ENDBLOCK cell_constraints

%BLOCK positions_frac
   H              0.183809644334606      -0.092237308118549       0.251845286430199
   H              0.348415326814718       0.119805416572654       0.250641111332598
   H              0.500000000000000       0.129559427659042       0.750000000000000
   H              0.500000000000000       0.420691553747965       0.750000000000000
   H              0.816190355665393      -0.092237308118549       0.248154713569799
   H              0.651584673185282       0.119805416572654       0.249358888667402
   H              0.683809644334607       0.407762691881453       0.251845286430199
   H              0.848415326814718       0.619805416572655       0.250641111332598
   H              0.000000000000000       0.629559427659042       0.750000000000000
   H             -0.000000000000000       0.920691553747965       0.750000000000000
   H              0.316190355665394       0.407762691881453       0.248154713569799
   H              0.151584673185282       0.619805416572655       0.249358888667402
   H              0.316190355665394       0.592237308118549       0.748154713569799
   H              0.151584673185282       0.380194583427346       0.749358888667402
   H              0.000000000000000       0.370440572340958       0.250000000000000
   H              0.000000000000000       0.079308446252035       0.250000000000000
   H              0.683809644334607       0.592237308118549       0.751845286430201
   H              0.848415326814718       0.380194583427346       0.750641111332598
   H              0.816190355665393       1.092237308118549       0.748154713569799
   H              0.651584673185282       0.880194583427345       0.749358888667402
   H              0.500000000000000       0.870440572340958       0.250000000000000
   H              0.500000000000000       0.579308446252035       0.250000000000000
   H              0.183809644334606       1.092237308118549       0.751845286430201
   H              0.348415326814718       0.880194583427345       0.750641111332598
%ENDBLOCK positions_frac

FIX_COM : true

%BLOCK species_gamma
   radsectesla
   H          267522128.0    
%ENDBLOCK species_gamma

%BLOCK species_pot
   H       0|0.7|2|6|8|10L(qc=10)
%ENDBLOCK species_pot

SYMMETRY_TOL :     0.001000

%BLOCK symmetry_ops
# Symm. op. 1       E
          1.000000000000000       0.000000000000000       0.000000000000000
          0.000000000000000       1.000000000000000       0.000000000000000
         -0.000000000000000       0.000000000000000       1.000000000000000
          0.000000000000000       0.000000000000000       0.000000000000000
# Symm. op. 2       I
         -1.000000000000000       0.000000000000000       0.000000000000000
          0.000000000000000      -1.000000000000000       0.000000000000000
          0.000000000000000       0.000000000000000      -1.000000000000000
         -0.000000000000000      -0.000000000000000      -0.000000000000000
# Symm. op. 3     2_1
         -1.000000000000000       0.000000000000000       0.000000000000000
          0.000000000000000       1.000000000000000       0.000000000000000
          0.000000000000000       0.000000000000000      -1.000000000000000
          0.500000000000000       0.500000000000000       0.500000000000000
# Symm. op. 4       n
          1.000000000000000       0.000000000000000       0.000000000000000
          0.000000000000000      -1.000000000000000       0.000000000000000
         -0.000000000000000       0.000000000000000       1.000000000000000
          0.500000000000000       0.500000000000000       0.500000000000000
# Symm. op. 5       E
          1.000000000000000       0.000000000000000       0.000000000000000
          0.000000000000000       1.000000000000000       0.000000000000000
         -0.000000000000000       0.000000000000000       1.000000000000000
          0.500000000000000       0.500000000000000       0.000000000000000
# Symm. op. 6       I
         -1.000000000000000       0.000000000000000       0.000000000000000
          0.000000000000000      -1.000000000000000       0.000000000000000
          0.000000000000000       0.000000000000000      -1.000000000000000
          0.500000000000000       0.500000000000000      -0.000000000000000
# Symm. op. 7       2
         -1.000000000000000       0.000000000000000       0.000000000000000
          0.000000000000000       1.000000000000000       0.000000000000000
          0.000000000000000       0.000000000000000      -1.000000000000000
         -0.000000000000000       0.000000000000000       0.500000000000000
# Symm. op. 8       c
          1.000000000000000       0.000000000000000       0.000000000000000
          0.000000000000000      -1.000000000000000       0.000000000000000
         -0.000000000000000       0.000000000000000       1.000000000000000
          0.000000000000000      -0.000000000000000       0.500000000000000
%ENDBLOCK symmetry_ops

kpoint_mp_grid :    2   2   2

phonon_kpoint_mp_grid :    1   1   1



%BLOCK EXTERNAL_PRESSURE
GPA
250  0   0
    250  0
        250
%ENDBLOCK EXTERNAL_PRESSURE
