# CELL file written 18:32:24 (GMT+1.0) 25th July 2020 from run C2c

%BLOCK lattice_cart
   ANG
       5.07860877908478        0.00000000000000      -0.209400702865981E-01
       0.00000000000000        2.76429241274562        0.00000000000000    
      -3.38561937329381        0.00000000000000        2.88751392278960    
%ENDBLOCK lattice_cart

%BLOCK cell_constraints
      1   2   3
      0   5   0
%ENDBLOCK cell_constraints

%BLOCK positions_frac
   H              0.173749979639170      -0.102499962269181       0.250691489296940
   H              0.339951896782798       0.113403314693558       0.250377700266985
   H              0.500000000000000       0.118356942783915       0.750000000000000
   H              0.500000000000000       0.403098796560300       0.750000000000000
   H              0.826250020360828      -0.102499962269181       0.249308510703058
   H              0.660048103217202       0.113403314693558       0.249622299733015
   H              0.673749979639172       0.397500037730820       0.250691489296940
   H              0.839951896782798       0.613403314693559       0.250377700266985
   H              0.000000000000000       0.618356942783915       0.750000000000000
   H             -0.000000000000000       0.903098796560300       0.750000000000000
   H              0.326250020360830       0.397500037730820       0.249308510703058
   H              0.160048103217202       0.613403314693559       0.249622299733015
   H              0.326250020360830       0.602499962269181       0.749308510703058
   H              0.160048103217202       0.386596685306442       0.749622299733014
   H              0.000000000000000       0.381643057216085       0.250000000000000
   H              0.000000000000000       0.096901203439700       0.250000000000000
   H              0.673749979639172       0.602499962269181       0.750691489296942
   H              0.839951896782798       0.386596685306442       0.750377700266986
   H              0.826250020360828       1.102499962269182       0.749308510703058
   H              0.660048103217202       0.886596685306441       0.749622299733014
   H              0.500000000000000       0.881643057216085       0.250000000000000
   H              0.500000000000000       0.596901203439700       0.250000000000000
   H              0.173749979639170       1.102499962269182       0.750691489296942
   H              0.339951896782798       0.886596685306441       0.750377700266986
%ENDBLOCK positions_frac

FIX_COM : true

%BLOCK species_gamma
   radsectesla
   H          267522128.0    
%ENDBLOCK species_gamma

%BLOCK species_pot
   H       0|0.7|2|6|8|10L(qc=10)
%ENDBLOCK species_pot

SYMMETRY_TOL :     0.001000

%BLOCK symmetry_ops
# Symm. op. 1       E
          1.000000000000000       0.000000000000000       0.000000000000000
          0.000000000000000       1.000000000000000       0.000000000000000
         -0.000000000000000       0.000000000000000       1.000000000000000
          0.000000000000000       0.000000000000000       0.000000000000000
# Symm. op. 2       I
         -1.000000000000000       0.000000000000000       0.000000000000000
          0.000000000000000      -1.000000000000000       0.000000000000000
          0.000000000000000       0.000000000000000      -1.000000000000000
         -0.000000000000000      -0.000000000000000      -0.000000000000000
# Symm. op. 3     2_1
         -1.000000000000000       0.000000000000000       0.000000000000000
          0.000000000000000       1.000000000000000       0.000000000000000
          0.000000000000000       0.000000000000000      -1.000000000000000
          0.500000000000000       0.500000000000000       0.500000000000000
# Symm. op. 4       n
          1.000000000000000       0.000000000000000       0.000000000000000
          0.000000000000000      -1.000000000000000       0.000000000000000
         -0.000000000000000       0.000000000000000       1.000000000000000
          0.500000000000000       0.500000000000000       0.500000000000000
# Symm. op. 5       E
          1.000000000000000       0.000000000000000       0.000000000000000
          0.000000000000000       1.000000000000000       0.000000000000000
         -0.000000000000000       0.000000000000000       1.000000000000000
          0.500000000000000       0.500000000000000       0.000000000000000
# Symm. op. 6       I
         -1.000000000000000       0.000000000000000       0.000000000000000
          0.000000000000000      -1.000000000000000       0.000000000000000
          0.000000000000000       0.000000000000000      -1.000000000000000
          0.500000000000000       0.500000000000000      -0.000000000000000
# Symm. op. 7       2
         -1.000000000000000       0.000000000000000       0.000000000000000
          0.000000000000000       1.000000000000000       0.000000000000000
          0.000000000000000       0.000000000000000      -1.000000000000000
         -0.000000000000000       0.000000000000000       0.500000000000000
# Symm. op. 8       c
          1.000000000000000       0.000000000000000       0.000000000000000
          0.000000000000000      -1.000000000000000       0.000000000000000
         -0.000000000000000       0.000000000000000       1.000000000000000
          0.000000000000000      -0.000000000000000       0.500000000000000
%ENDBLOCK symmetry_ops

kpoint_mp_grid :    2   2   2

phonon_kpoint_mp_grid :    1   1   1



%BLOCK EXTERNAL_PRESSURE
GPA
200  0   0
    200  0
        200
%ENDBLOCK EXTERNAL_PRESSURE
