# CELL file written 18:14:41 (GMT+1.0) 25th July 2020 from run C2c

%BLOCK lattice_cart
   ANG
       5.04529457996075        0.00000000000000      -0.211169757877791E-01
       0.00000000000000        2.74948754568437        0.00000000000000    
      -3.36358304877405        0.00000000000000        2.87010664131351    
%ENDBLOCK lattice_cart

%BLOCK cell_constraints
      1   2   3
      0   5   0
%ENDBLOCK cell_constraints

%BLOCK positions_frac
   H              0.176639626820333      -0.099807572561465       0.251026522892110
   H              0.342456039087555       0.115221432181957       0.250471072701220
   H              0.500000000000000       0.121843080981339       0.750000000000000
   H              0.500000000000000       0.408035088561508       0.750000000000000
   H              0.823360373179665      -0.099807572561465       0.248973477107888
   H              0.657543960912445       0.115221432181957       0.249528927298780
   H              0.676639626820335       0.400192427438536       0.251026522892110
   H              0.842456039087555       0.615221432181958       0.250471072701220
   H              0.000000000000000       0.621843080981339       0.750000000000000
   H              0.000000000000000       0.908035088561508       0.750000000000000
   H              0.323360373179667       0.400192427438536       0.248973477107888
   H              0.157543960912445       0.615221432181958       0.249528927298780
   H              0.323360373179667       0.599807572561465       0.748973477107888
   H              0.157543960912445       0.384778567818043       0.749528927298780
   H              0.000000000000000       0.378156919018661       0.250000000000000
   H              0.000000000000000       0.091964911438492       0.250000000000000
   H              0.676639626820335       0.599807572561465       0.751026522892112
   H              0.842456039087555       0.384778567818043       0.750471072701220
   H              0.823360373179665       1.099807572561466       0.748973477107888
   H              0.657543960912445       0.884778567818042       0.749528927298780
   H              0.500000000000000       0.878156919018661       0.250000000000000
   H              0.500000000000000       0.591964911438492       0.250000000000000
   H              0.176639626820333       1.099807572561466       0.751026522892112
   H              0.342456039087555       0.884778567818042       0.750471072701220
%ENDBLOCK positions_frac

FIX_COM : true

%BLOCK species_gamma
   radsectesla
   H          267522128.0    
%ENDBLOCK species_gamma

%BLOCK species_pot
   H       0|0.7|2|6|8|10L(qc=10)
%ENDBLOCK species_pot

SYMMETRY_TOL :     0.001000

%BLOCK symmetry_ops
# Symm. op. 1       E
          1.000000000000000       0.000000000000000       0.000000000000000
          0.000000000000000       1.000000000000000       0.000000000000000
         -0.000000000000000       0.000000000000000       1.000000000000000
          0.000000000000000       0.000000000000000       0.000000000000000
# Symm. op. 2       I
         -1.000000000000000       0.000000000000000       0.000000000000000
          0.000000000000000      -1.000000000000000       0.000000000000000
          0.000000000000000       0.000000000000000      -1.000000000000000
         -0.000000000000000      -0.000000000000000      -0.000000000000000
# Symm. op. 3     2_1
         -1.000000000000000       0.000000000000000       0.000000000000000
          0.000000000000000       1.000000000000000       0.000000000000000
          0.000000000000000       0.000000000000000      -1.000000000000000
          0.500000000000000       0.500000000000000       0.500000000000000
# Symm. op. 4       n
          1.000000000000000       0.000000000000000       0.000000000000000
          0.000000000000000      -1.000000000000000       0.000000000000000
         -0.000000000000000       0.000000000000000       1.000000000000000
          0.500000000000000       0.500000000000000       0.500000000000000
# Symm. op. 5       E
          1.000000000000000       0.000000000000000       0.000000000000000
          0.000000000000000       1.000000000000000       0.000000000000000
         -0.000000000000000       0.000000000000000       1.000000000000000
          0.500000000000000       0.500000000000000       0.000000000000000
# Symm. op. 6       I
         -1.000000000000000       0.000000000000000       0.000000000000000
          0.000000000000000      -1.000000000000000       0.000000000000000
          0.000000000000000       0.000000000000000      -1.000000000000000
          0.500000000000000       0.500000000000000      -0.000000000000000
# Symm. op. 7       2
         -1.000000000000000       0.000000000000000       0.000000000000000
          0.000000000000000       1.000000000000000       0.000000000000000
          0.000000000000000       0.000000000000000      -1.000000000000000
         -0.000000000000000       0.000000000000000       0.500000000000000
# Symm. op. 8       c
          1.000000000000000       0.000000000000000       0.000000000000000
          0.000000000000000      -1.000000000000000       0.000000000000000
         -0.000000000000000       0.000000000000000       1.000000000000000
          0.000000000000000      -0.000000000000000       0.500000000000000
%ENDBLOCK symmetry_ops

kpoint_mp_grid :    2   2   2

phonon_kpoint_mp_grid :    1   1   1



%BLOCK EXTERNAL_PRESSURE
GPA
210  0   0
    210  0
        210
%ENDBLOCK EXTERNAL_PRESSURE
