# CELL file written 00:14:17 (GMT+1.0) 22nd August 2020 from run P21c

%BLOCK lattice_cart
   ANG
       10.1407288491005        0.00000000000000       0.150469040430241E-02
       0.00000000000000        2.11351802845189        0.00000000000000    
      -6.76204706395318        0.00000000000000        3.64337207263878    
%ENDBLOCK lattice_cart

%BLOCK cell_constraints
      1   2   3
      0   5   0
%ENDBLOCK cell_constraints

%BLOCK positions_frac
   H              0.837342516522328       0.645986783577380       0.106363313882720
   H              0.162657483477673       0.354013216422620       0.893636686117279
   H              0.837342516522328       0.854013216422620       0.606363313882720
   H              0.162657483477673       0.145986783577379       0.393636686117282
   H              0.881350814985689       0.406826339017792       0.221771173373075
   H              0.118649185014310       0.593173660982208       0.778228826626926
   H              0.881350814985689       0.093173660982208       0.721771173373074
   H              0.118649185014310       0.906826339017792       0.278228826626925
   H              0.858491162344095       0.114542412670508       0.414439150083628
   H              0.141508837655903       0.885457587329492       0.585560849916372
   H              0.858491162344095       0.385457587329492       0.914439150083628
   H              0.141508837655903       0.614542412670508       0.085560849916372
   H              0.750755571450565       0.910158501351471       0.249993032396094
   H              0.249244428549435       0.089841498648530       0.750006967603906
   H              0.750755571450565       0.589841498648529       0.749993032396094
   H              0.249244428549435       0.410158501351470       0.250006967603907
   H              0.572800983815702       0.395793301201475       0.192591032799590
   H              0.427199016184297       0.604206698798525       0.807408967200410
   H              0.572800983815702       0.104206698798525       0.692591032799590
   H              0.427199016184297       0.895793301201475       0.307408967200410
   H              0.480582535028111       0.595216994215787       0.139075882293599
   H              0.519417464971889       0.404783005784212       0.860924117706402
   H              0.480582535028111       0.904783005784212       0.639075882293598
   H              0.519417464971889       0.095216994215788       0.360924117706401
%ENDBLOCK positions_frac

FIX_COM : true

%BLOCK species_gamma
   radsectesla
   H          267522128.0    
%ENDBLOCK species_gamma

%BLOCK species_pot
   H       0|0.7|2|6|8|10L(qc=10)
%ENDBLOCK species_pot

SYMMETRY_TOL :     0.001000

%BLOCK symmetry_ops
# Symm. op. 1       E
          1.000000000000000       0.000000000000000       0.000000000000000
          0.000000000000000       1.000000000000000       0.000000000000000
          0.000000000000000       0.000000000000000       1.000000000000000
          0.000000000000000       0.000000000000000       0.000000000000000
# Symm. op. 2       I
         -1.000000000000000       0.000000000000000       0.000000000000000
          0.000000000000000      -1.000000000000000       0.000000000000000
         -0.000000000000000       0.000000000000000      -1.000000000000000
          0.000000000000000       0.000000000000000      -0.000000000000000
# Symm. op. 3     2_1
         -1.000000000000000       0.000000000000000       0.000000000000000
          0.000000000000000       1.000000000000000       0.000000000000000
         -0.000000000000000       0.000000000000000      -1.000000000000000
          0.000000000000000       0.500000000000000       0.500000000000000
# Symm. op. 4       c
          1.000000000000000       0.000000000000000       0.000000000000000
          0.000000000000000      -1.000000000000000       0.000000000000000
          0.000000000000000       0.000000000000000       1.000000000000000
          0.000000000000000       0.500000000000000       0.500000000000000
%ENDBLOCK symmetry_ops

kpoint_mp_grid :    8  13  11

%BLOCK external_pressure
   GPA
        40.00000000      0.00000000      0.00000000
        40.00000000      0.00000000
        40.00000000
%ENDBLOCK external_pressure

