# CELL file written 07:30:47 (GMT+1.0) 22nd August 2020 from run P21c

%BLOCK lattice_cart
   ANG
       11.0362018276851        0.00000000000000       0.291126634026659E-02
       0.00000000000000        2.28492675983292        0.00000000000000    
      -7.35870538768718        0.00000000000000        3.93643847292154    
%ENDBLOCK lattice_cart

%BLOCK cell_constraints
      1   2   3
      0   5   0
%ENDBLOCK cell_constraints

%BLOCK positions_frac
   H              0.841345414353636       0.628926198717783       0.113106152590560
   H              0.158654585646365       0.371073801282217       0.886893847409439
   H              0.841345414353636       0.871073801282217       0.613106152590560
   H              0.158654585646365       0.128926198717782       0.386893847409442
   H              0.878779791182503       0.409564776131028       0.217875723724660
   H              0.121220208817496       0.590435223868972       0.782124276275340
   H              0.878779791182503       0.090435223868972       0.717875723724660
   H              0.121220208817496       0.909564776131028       0.282124276275340
   H              0.854652832667990       0.103864882360792       0.409079085525685
   H              0.145347167332009       0.896135117639209       0.590920914474315
   H              0.854652832667990       0.396135117639209       0.909079085525685
   H              0.145347167332009       0.603864882360791       0.090920914474315
   H              0.755032476974872       0.914053413829121       0.256236893785300
   H              0.244967523025127       0.085946586170880       0.743763106214700
   H              0.755032476974872       0.585946586170879       0.756236893785300
   H              0.244967523025127       0.414053413829120       0.243763106214701
   H              0.569686073284849       0.403399756735459       0.190425118536145
   H              0.430313926715150       0.596600243264541       0.809574881463855
   H              0.569686073284849       0.096600243264541       0.690425118536145
   H              0.430313926715150       0.903399756735459       0.309574881463855
   H              0.484913956038065       0.585206683902423       0.142753333409551
   H              0.515086043961935       0.414793316097576       0.857246666590449
   H              0.484913956038065       0.914793316097576       0.642753333409551
   H              0.515086043961935       0.085206683902424       0.357246666590448
%ENDBLOCK positions_frac

FIX_COM : true

%BLOCK species_gamma
   radsectesla
   H          267522128.0    
%ENDBLOCK species_gamma

%BLOCK species_pot
   H       0|0.7|2|6|8|10L(qc=10)
%ENDBLOCK species_pot

SYMMETRY_TOL :     0.001000

%BLOCK symmetry_ops
# Symm. op. 1       E
          1.000000000000000       0.000000000000000       0.000000000000000
          0.000000000000000       1.000000000000000       0.000000000000000
          0.000000000000000       0.000000000000000       1.000000000000000
          0.000000000000000       0.000000000000000       0.000000000000000
# Symm. op. 2       I
         -1.000000000000000       0.000000000000000       0.000000000000000
          0.000000000000000      -1.000000000000000       0.000000000000000
         -0.000000000000000       0.000000000000000      -1.000000000000000
          0.000000000000000       0.000000000000000      -0.000000000000000
# Symm. op. 3     2_1
         -1.000000000000000       0.000000000000000       0.000000000000000
          0.000000000000000       1.000000000000000       0.000000000000000
         -0.000000000000000       0.000000000000000      -1.000000000000000
          0.000000000000000       0.500000000000000       0.500000000000000
# Symm. op. 4       c
          1.000000000000000       0.000000000000000       0.000000000000000
          0.000000000000000      -1.000000000000000       0.000000000000000
          0.000000000000000       0.000000000000000       1.000000000000000
          0.000000000000000       0.500000000000000       0.500000000000000
%ENDBLOCK symmetry_ops

kpoint_mp_grid :    8  13  11


