|100,10,10|
# CELL file written 21:45:47 (GMT+1.0) 22nd August 2019 from run P21c

%BLOCK lattice_cart
   ANG
       8.96316283385608        0.00000000000000       0.280114904666595E-02
       0.00000000000000        1.89257815385133        0.00000000000000    
      -5.97629664362890        0.00000000000000        3.26510869605412    
%ENDBLOCK lattice_cart

%BLOCK cell_constraints
      1   2   3
      0   5   0
%ENDBLOCK cell_constraints

%BLOCK positions_frac
   H              0.828598050409139       0.680729601758899       0.093901239091086
   H              0.171401949590861       0.319270398241101       0.906098760908913
   H              0.828598050409139       0.819270398241101       0.593901239091086
   H              0.171401949590861       0.180729601758899       0.406098760908914
   H              0.887271800366730       0.406080271584981       0.227799104516903
   H              0.112728199633270       0.593919728415019       0.772200895483097
   H              0.887271800366730       0.093919728415019       0.727799104516903
   H              0.112728199633270       0.906080271584981       0.272200895483097
   H              0.864883405940167       0.136313334213211       0.422217317232428
   H              0.135116594059833       0.863686665786789       0.577782682767572
   H              0.864883405940167       0.363686665786789       0.922217317232428
   H              0.135116594059833       0.636313334213211       0.077782682767572
   H              0.744679785399616       0.904731209057135       0.241983445248432
   H              0.255320214600384       0.095268790942865       0.758016554751568
   H              0.744679785399616       0.595268790942865       0.741983445248432
   H              0.255320214600384       0.404731209057135       0.258016554751568
   H              0.576744107426250       0.377061770512206       0.196377705051209
   H              0.423255892573749       0.622938229487794       0.803622294948791
   H              0.576744107426250       0.122938229487794       0.696377705051209
   H              0.423255892573749       0.877061770512206       0.303622294948791
   H              0.472289469863771       0.612626069589287       0.129886677282698
   H              0.527710530136229       0.387373930410711       0.870113322717302
   H              0.472289469863771       0.887373930410712       0.629886677282698
   H              0.527710530136229       0.112626069589289       0.370113322717302
%ENDBLOCK positions_frac

FIX_COM : true

%BLOCK species_gamma
   radsectesla
   H          267522128.0    
%ENDBLOCK species_gamma

%BLOCK species_pot
   H       0|0.7|2|6|8|10L(qc=10)
%ENDBLOCK species_pot

SYMMETRY_TOL :     0.001000

%BLOCK symmetry_ops
# Symm. op. 1       E
          1.000000000000000       0.000000000000000       0.000000000000000
          0.000000000000000       1.000000000000000       0.000000000000000
          0.000000000000000       0.000000000000000       1.000000000000000
          0.000000000000000       0.000000000000000       0.000000000000000
# Symm. op. 2       I
         -1.000000000000000       0.000000000000000       0.000000000000000
          0.000000000000000      -1.000000000000000       0.000000000000000
         -0.000000000000000       0.000000000000000      -1.000000000000000
          0.000000000000000       0.000000000000000      -0.000000000000000
# Symm. op. 3     2_1
         -1.000000000000000       0.000000000000000       0.000000000000000
          0.000000000000000       1.000000000000000       0.000000000000000
         -0.000000000000000       0.000000000000000      -1.000000000000000
          0.000000000000000       0.500000000000000       0.500000000000000
# Symm. op. 4       c
          1.000000000000000       0.000000000000000       0.000000000000000
          0.000000000000000      -1.000000000000000       0.000000000000000
          0.000000000000000       0.000000000000000       1.000000000000000
          0.000000000000000       0.500000000000000       0.500000000000000
%ENDBLOCK symmetry_ops

kpoint_mp_grid :    8  13  11
