# CELL file written 23:32:00 (GMT+1.0) 30th August 2020 from run Pca21

%BLOCK lattice_cart
   ANG
       3.21969237798677        0.00000000000000        0.00000000000000    
       0.00000000000000        1.87116471400352        0.00000000000000    
       0.00000000000000        0.00000000000000        2.95719988125448    
%ENDBLOCK lattice_cart

%BLOCK cell_constraints
      1   2   3
      0   0   0
%ENDBLOCK cell_constraints

%BLOCK positions_frac
   H              0.347561331086383       0.127935754649766       0.377841294589498
   H              0.486360828260817       0.368349422318402       0.501058938977402
   H              0.986360828260816       0.631650577681597       0.501058938977402
   H              0.847561331086384       0.872064245350234       0.377841294589498
   H              0.013639171739183       0.368349422318402       0.001058938977403
   H              0.152438668913616       0.127935754649766       0.877841294589500
   H              0.513639171739184       0.631650577681597       0.001058938977403
   H              0.652438668913616       0.872064245350234       0.877841294589500
%ENDBLOCK positions_frac

FIX_COM : true

%BLOCK species_mass
   AMU
   H          1.007825032    
%ENDBLOCK species_mass

%BLOCK species_gamma
   radsectesla
   H          267522128.0    
%ENDBLOCK species_gamma

%BLOCK species_pot
   H       0|0.7|2|6|8|10L(qc=10)
%ENDBLOCK species_pot

SYMMETRY_TOL :     0.001000

%BLOCK symmetry_ops
# Symm. op. 1       E
          1.000000000000000       0.000000000000000       0.000000000000000
          0.000000000000000       1.000000000000000       0.000000000000000
          0.000000000000000       0.000000000000000       1.000000000000000
          0.000000000000000       0.000000000000000       0.000000000000000
# Symm. op. 2     2_1
         -1.000000000000000       0.000000000000000       0.000000000000000
          0.000000000000000      -1.000000000000000       0.000000000000000
          0.000000000000000       0.000000000000000       1.000000000000000
         -0.000000000000000      -0.000000000000000       0.500000000000000
# Symm. op. 3       c
         -1.000000000000000       0.000000000000000       0.000000000000000
          0.000000000000000       1.000000000000000       0.000000000000000
          0.000000000000000       0.000000000000000       1.000000000000000
          0.500000000000000       0.000000000000000       0.500000000000000
# Symm. op. 4       a
          1.000000000000000       0.000000000000000       0.000000000000000
          0.000000000000000      -1.000000000000000       0.000000000000000
          0.000000000000000       0.000000000000000       1.000000000000000
          0.500000000000000      -0.000000000000000       0.000000000000000
%ENDBLOCK symmetry_ops

kpoint_mp_grid :   15  15  15

%BLOCK external_pressure
   GPA
       110.00000000      0.00000000      0.00000000
       110.00000000      0.00000000
       110.00000000
%ENDBLOCK external_pressure

