# CELL file written 23:14:39 (GMT+1.0) 30th August 2020 from run Pca21

%BLOCK lattice_cart
   ANG
       3.35046021577270        0.00000000000000        0.00000000000000    
       0.00000000000000        1.94656841583379        0.00000000000000    
       0.00000000000000        0.00000000000000        3.09016136601169    
%ENDBLOCK lattice_cart

%BLOCK cell_constraints
      1   2   3
      0   0   0
%ENDBLOCK cell_constraints

%BLOCK positions_frac
   H              0.351271124793724       0.134093951987070       0.378125869289489
   H              0.482147636265418       0.364931542020903       0.500774364277411
   H              0.982147636265417       0.635068457979096       0.500774364277411
   H              0.851271124793725       0.865906048012930       0.378125869289489
   H              0.017852363734582       0.364931542020903       0.000774364277412
   H              0.148728875206275       0.134093951987070       0.878125869289491
   H              0.517852363734583       0.635068457979096       0.000774364277412
   H              0.648728875206275       0.865906048012930       0.878125869289491
%ENDBLOCK positions_frac

FIX_COM : true

%BLOCK species_mass
   AMU
   H          1.007825032    
%ENDBLOCK species_mass

%BLOCK species_gamma
   radsectesla
   H          267522128.0    
%ENDBLOCK species_gamma

%BLOCK species_pot
   H       0|0.7|2|6|8|10L(qc=10)
%ENDBLOCK species_pot

SYMMETRY_TOL :     0.001000

%BLOCK symmetry_ops
# Symm. op. 1       E
          1.000000000000000       0.000000000000000       0.000000000000000
          0.000000000000000       1.000000000000000       0.000000000000000
          0.000000000000000       0.000000000000000       1.000000000000000
          0.000000000000000       0.000000000000000       0.000000000000000
# Symm. op. 2     2_1
         -1.000000000000000       0.000000000000000       0.000000000000000
          0.000000000000000      -1.000000000000000       0.000000000000000
          0.000000000000000       0.000000000000000       1.000000000000000
         -0.000000000000000      -0.000000000000000       0.500000000000000
# Symm. op. 3       c
         -1.000000000000000       0.000000000000000       0.000000000000000
          0.000000000000000       1.000000000000000       0.000000000000000
          0.000000000000000       0.000000000000000       1.000000000000000
          0.500000000000000       0.000000000000000       0.500000000000000
# Symm. op. 4       a
          1.000000000000000       0.000000000000000       0.000000000000000
          0.000000000000000      -1.000000000000000       0.000000000000000
          0.000000000000000       0.000000000000000       1.000000000000000
          0.500000000000000      -0.000000000000000       0.000000000000000
%ENDBLOCK symmetry_ops

kpoint_mp_grid :   15  15  15

%BLOCK external_pressure
   GPA
        80.00000000      0.00000000      0.00000000
        80.00000000      0.00000000
        80.00000000
%ENDBLOCK external_pressure

