# CELL file written 22:44:10 (GMT+1.0) 30th August 2020 from run Pca21

%BLOCK lattice_cart
   ANG
       3.64028650017422        0.00000000000000        0.00000000000000    
       0.00000000000000        2.11429428363166        0.00000000000000    
       0.00000000000000        0.00000000000000        3.38383292467891    
%ENDBLOCK lattice_cart

%BLOCK cell_constraints
      1   2   3
      0   0   0
%ENDBLOCK cell_constraints

%BLOCK positions_frac
   H              0.357808561956048       0.145117233324281       0.380293741236741
   H              0.475053226831840       0.357624914012218       0.498606492330159
   H              0.975053226831840       0.642375085987781       0.498606492330159
   H              0.857808561956048       0.854882766675720       0.380293741236741
   H              0.024946773168160       0.357624914012218      -0.001393507669840
   H              0.142191438043951       0.145117233324281       0.880293741236742
   H              0.524946773168160       0.642375085987781      -0.001393507669840
   H              0.642191438043952       0.854882766675720       0.880293741236742
%ENDBLOCK positions_frac

FIX_COM : true

%BLOCK species_mass
   AMU
   H          1.007825032    
%ENDBLOCK species_mass

%BLOCK species_gamma
   radsectesla
   H          267522128.0    
%ENDBLOCK species_gamma

%BLOCK species_pot
   H       0|0.7|2|6|8|10L(qc=10)
%ENDBLOCK species_pot

SYMMETRY_TOL :     0.001000

%BLOCK symmetry_ops
# Symm. op. 1       E
          1.000000000000000       0.000000000000000       0.000000000000000
          0.000000000000000       1.000000000000000       0.000000000000000
          0.000000000000000       0.000000000000000       1.000000000000000
          0.000000000000000       0.000000000000000       0.000000000000000
# Symm. op. 2     2_1
         -1.000000000000000       0.000000000000000       0.000000000000000
          0.000000000000000      -1.000000000000000       0.000000000000000
          0.000000000000000       0.000000000000000       1.000000000000000
         -0.000000000000000      -0.000000000000000       0.500000000000000
# Symm. op. 3       c
         -1.000000000000000       0.000000000000000       0.000000000000000
          0.000000000000000       1.000000000000000       0.000000000000000
          0.000000000000000       0.000000000000000       1.000000000000000
          0.500000000000000       0.000000000000000       0.500000000000000
# Symm. op. 4       a
          1.000000000000000       0.000000000000000       0.000000000000000
          0.000000000000000      -1.000000000000000       0.000000000000000
          0.000000000000000       0.000000000000000       1.000000000000000
          0.500000000000000      -0.000000000000000       0.000000000000000
%ENDBLOCK symmetry_ops

kpoint_mp_grid :   15  15  15

%BLOCK external_pressure
   GPA
        40.00000000      0.00000000      0.00000000
        40.00000000      0.00000000
        40.00000000
%ENDBLOCK external_pressure

