# CELL file written 23:26:39 (GMT+1.0) 30th August 2020 from run Pca21

%BLOCK lattice_cart
   ANG
       3.25865311864983        0.00000000000000        0.00000000000000    
       0.00000000000000        1.89361318072622        0.00000000000000    
       0.00000000000000        0.00000000000000        2.99680180410919    
%ENDBLOCK lattice_cart

%BLOCK cell_constraints
      1   2   3
      0   0   0
%ENDBLOCK cell_constraints

%BLOCK positions_frac
   H              0.348719664096091       0.129860153680879       0.377871615206283
   H              0.485027125050528       0.367333905898056       0.501028618360617
   H              0.985027125050527       0.632666094101943       0.501028618360617
   H              0.848719664096092       0.870139846319121       0.377871615206283
   H              0.014972874949472       0.367333905898056       0.001028618360618
   H              0.151280335903908       0.129860153680879       0.877871615206285
   H              0.514972874949473       0.632666094101943       0.001028618360618
   H              0.651280335903908       0.870139846319121       0.877871615206285
%ENDBLOCK positions_frac

FIX_COM : true

%BLOCK species_mass
   AMU
   H          1.007825032    
%ENDBLOCK species_mass

%BLOCK species_gamma
   radsectesla
   H          267522128.0    
%ENDBLOCK species_gamma

%BLOCK species_pot
   H       0|0.7|2|6|8|10L(qc=10)
%ENDBLOCK species_pot

SYMMETRY_TOL :     0.001000

%BLOCK symmetry_ops
# Symm. op. 1       E
          1.000000000000000       0.000000000000000       0.000000000000000
          0.000000000000000       1.000000000000000       0.000000000000000
          0.000000000000000       0.000000000000000       1.000000000000000
          0.000000000000000       0.000000000000000       0.000000000000000
# Symm. op. 2     2_1
         -1.000000000000000       0.000000000000000       0.000000000000000
          0.000000000000000      -1.000000000000000       0.000000000000000
          0.000000000000000       0.000000000000000       1.000000000000000
         -0.000000000000000      -0.000000000000000       0.500000000000000
# Symm. op. 3       c
         -1.000000000000000       0.000000000000000       0.000000000000000
          0.000000000000000       1.000000000000000       0.000000000000000
          0.000000000000000       0.000000000000000       1.000000000000000
          0.500000000000000       0.000000000000000       0.500000000000000
# Symm. op. 4       a
          1.000000000000000       0.000000000000000       0.000000000000000
          0.000000000000000      -1.000000000000000       0.000000000000000
          0.000000000000000       0.000000000000000       1.000000000000000
          0.500000000000000      -0.000000000000000       0.000000000000000
%ENDBLOCK symmetry_ops

kpoint_mp_grid :   15  15  15

%BLOCK external_pressure
   GPA
       100.00000000      0.00000000      0.00000000
       100.00000000      0.00000000
       100.00000000
%ENDBLOCK external_pressure

