# CELL file written 16:45:08 (GMT+1.0) 15th July 2020 from run Pca21_30GPa

%BLOCK lattice_cart
   ANG
       3.76268577927791        0.00000000000000        0.00000000000000    
       0.00000000000000        2.18511375413227        0.00000000000000    
       0.00000000000000        0.00000000000000        3.50669250878542    
%ENDBLOCK lattice_cart

%BLOCK cell_constraints
      1   2   3
      0   0   0
%ENDBLOCK cell_constraints

%BLOCK positions_frac
   H              0.359974234532949       0.148942608882433       0.381613430569454
   H              0.472751503441106       0.354737549513235       0.497286802997446
   H              0.972751503441107       0.645262450486764       0.497286802997446
   H              0.859974234532949       0.851057391117567       0.381613430569454
   H              0.027248496558894       0.354737549513235       0.997286802997447
   H              0.140025765467050       0.148942608882433       0.881613430569454
   H              0.527248496558893       0.645262450486764       0.997286802997447
   H              0.640025765467051       0.851057391117567       0.881613430569454
%ENDBLOCK positions_frac

FIX_COM : true

%BLOCK species_mass
   AMU
   H          1.007825032    
%ENDBLOCK species_mass

%BLOCK species_gamma
   radsectesla
   H          267522128.0    
%ENDBLOCK species_gamma

%BLOCK species_pot
   H       0|0.7|2|6|8|10L(qc=10)
%ENDBLOCK species_pot

SYMMETRY_TOL :     0.001000

%BLOCK symmetry_ops
# Symm. op. 1       E
          1.000000000000000       0.000000000000000       0.000000000000000
          0.000000000000000       1.000000000000000       0.000000000000000
          0.000000000000000       0.000000000000000       1.000000000000000
          0.000000000000000       0.000000000000000       0.000000000000000
# Symm. op. 2     2_1
         -1.000000000000000       0.000000000000000       0.000000000000000
          0.000000000000000      -1.000000000000000       0.000000000000000
          0.000000000000000       0.000000000000000       1.000000000000000
         -0.000000000000000      -0.000000000000000       0.500000000000000
# Symm. op. 3       c
         -1.000000000000000       0.000000000000000       0.000000000000000
          0.000000000000000       1.000000000000000       0.000000000000000
          0.000000000000000       0.000000000000000       1.000000000000000
          0.500000000000000       0.000000000000000       0.500000000000000
# Symm. op. 4       a
          1.000000000000000       0.000000000000000       0.000000000000000
          0.000000000000000      -1.000000000000000       0.000000000000000
          0.000000000000000       0.000000000000000       1.000000000000000
          0.500000000000000      -0.000000000000000       0.000000000000000
%ENDBLOCK symmetry_ops

kpoint_mp_grid :    7  13   9

phonon_kpoint_mp_grid :    1   1   1

%BLOCK external_pressure
   GPA
        30.00000000      0.00000000      0.00000000
        30.00000000      0.00000000
        30.00000000
%ENDBLOCK external_pressure

