# CELL file written 16:45:35 (GMT+1.0) 27th July 2020 from run Pbcn

%BLOCK lattice_cart
   ANG
       3.03669480816732      -0.802372310831608E-34    0.00000000000000    
     -0.139626073625189E-33    5.27964069589834        0.00000000000000    
       0.00000000000000        0.00000000000000        5.39613388534151    
%ENDBLOCK lattice_cart

%BLOCK cell_constraints
      1   2   3
      0   0   0
%ENDBLOCK cell_constraints

%BLOCK positions_frac
   H              0.402096660876084       0.116824143154868       0.009991060457133
   H              0.575642015188511       0.208687968587918       0.033400127720048
   H              0.571054123021228       0.554677409117534       0.004639901019287
   H              0.129870392406512       0.171405010250238       0.247940188738812
   H              0.307919454012079       0.351002178420819       0.242092393915223
   H              0.177978830496066       0.480116111465758       0.250197696963127
   H              0.177978830496066       0.519883888534242       0.750197696963127
   H              0.307919454012079       0.648997821579181       0.742092393915222
   H              0.129870392406512       0.828594989749761       0.747940188738813
   H              0.571054123021228       0.445322590882466       0.504639901019288
   H              0.575642015188511       0.791312031412084       0.533400127720048
   H              0.402096660876084       0.883175856845132       0.509991060457134
   H              0.322021169503935       0.980116111465758       0.250197696963127
   H              0.192080545987922       0.851002178420818       0.242092393915223
   H              0.370129607593487       0.671405010250239       0.247940188738812
   H             -0.071054123021229       0.054677409117535       0.004639901019287
   H             -0.075642015188509       0.708687968587916       0.033400127720048
   H              0.097903339123916       0.616824143154868       0.009991060457133
   H              0.677978830496066       0.980116111465758       0.249802303036873
   H              0.807919454012080       0.851002178420818       0.257907606084777
   H              0.629870392406512       0.671405010250239       0.252059811261188
   H              1.071054123021229       0.054677409117535       0.495360098980712
   H              1.075642015188509       0.708687968587916       0.466599872279952
   H              0.902096660876086       0.616824143154868       0.490008939542867
   H              0.822021169503935       0.519883888534242       0.749802303036873
   H              0.692080545987920       0.648997821579181       0.757907606084778
   H              0.870129607593488       0.828594989749761       0.752059811261187
   H              0.428945876978771       0.445322590882466      -0.004639901019287
   H              0.424357984811490       0.791312031412084       0.966599872279952
   H              0.597903339123914       0.883175856845132       0.990008939542866
   H              0.822021169503935       0.480116111465758       0.249802303036873
   H              0.692080545987920       0.351002178420819       0.257907606084777
   H              0.870129607593488       0.171405010250238       0.252059811261188
   H              0.428945876978771       0.554677409117534       0.495360098980712
   H              0.424357984811490       0.208687968587918       0.466599872279952
   H              0.597903339123914       0.116824143154868       0.490008939542867
   H              0.677978830496066       0.019883888534242       0.749802303036873
   H              0.807919454012080       0.148997821579181       0.757907606084778
   H              0.629870392406512       0.328594989749762       0.752059811261187
   H              0.071054123021229      -0.054677409117535      -0.004639901019287
   H              1.075642015188509       0.291312031412082       0.966599872279952
   H              0.902096660876086       0.383175856845134       0.990008939542866
   H              0.322021169503935       0.019883888534242       0.750197696963127
   H              0.192080545987922       0.148997821579181       0.742092393915222
   H              0.370129607593487       0.328594989749762       0.747940188738813
   H              0.928945876978772      -0.054677409117535       0.504639901019288
   H             -0.075642015188509       0.291312031412082       0.533400127720048
   H              0.097903339123916       0.383175856845134       0.509991060457134
%ENDBLOCK positions_frac

FIX_COM : true

%BLOCK species_mass
   AMU
   H          1.007825032    
%ENDBLOCK species_mass

%BLOCK species_gamma
   radsectesla
   H          267522128.0    
%ENDBLOCK species_gamma

%BLOCK species_pot
   H       0|0.7|2|6|8|10L(qc=10)
%ENDBLOCK species_pot

SYMMETRY_TOL :     0.001000

%BLOCK symmetry_ops
# Symm. op. 1       E
          1.000000000000000       0.000000000000000       0.000000000000000
          0.000000000000000       1.000000000000000       0.000000000000000
          0.000000000000000       0.000000000000000       1.000000000000000
          0.000000000000000       0.000000000000000       0.000000000000000
# Symm. op. 2       I
         -1.000000000000000       0.000000000000000       0.000000000000000
          0.000000000000000      -1.000000000000000       0.000000000000000
          0.000000000000000       0.000000000000000      -1.000000000000000
         -0.000000000000000      -0.000000000000000       0.000000000000000
# Symm. op. 3     2_1
         -1.000000000000000       0.000000000000000       0.000000000000000
          0.000000000000000      -1.000000000000000       0.000000000000000
          0.000000000000000       0.000000000000000       1.000000000000000
          0.500000000000000       0.500000000000000       0.500000000000000
# Symm. op. 4       n
          1.000000000000000       0.000000000000000       0.000000000000000
          0.000000000000000       1.000000000000000       0.000000000000000
          0.000000000000000       0.000000000000000      -1.000000000000000
          0.500000000000000       0.500000000000000       0.500000000000000
# Symm. op. 5     2_1
          1.000000000000000       0.000000000000000       0.000000000000000
          0.000000000000000      -1.000000000000000       0.000000000000000
          0.000000000000000       0.000000000000000      -1.000000000000000
          0.500000000000000       0.500000000000000       0.000000000000000
# Symm. op. 6       b
         -1.000000000000000       0.000000000000000       0.000000000000000
          0.000000000000000       1.000000000000000       0.000000000000000
          0.000000000000000       0.000000000000000       1.000000000000000
          0.500000000000000       0.500000000000000       0.000000000000000
# Symm. op. 7       2
         -1.000000000000000       0.000000000000000       0.000000000000000
          0.000000000000000       1.000000000000000       0.000000000000000
          0.000000000000000       0.000000000000000      -1.000000000000000
          0.000000000000000       0.000000000000000       0.500000000000000
# Symm. op. 8       c
          1.000000000000000       0.000000000000000       0.000000000000000
          0.000000000000000      -1.000000000000000       0.000000000000000
          0.000000000000000       0.000000000000000       1.000000000000000
          0.000000000000000      -0.000000000000000       0.500000000000000
%ENDBLOCK symmetry_ops

kpoint_mp_grid :    5   5   5

phonon_kpoint_mp_grid :    8   6   4



%BLOCK EXTERNAL_PRESSURE
GPA
150  0   0
    150  0
        150
%ENDBLOCK EXTERNAL_PRESSURE
