# CELL file written 14:55:33 (GMT+1.0) 30th July 2020 from run Cmca4

%BLOCK lattice_cart
   ANG
       1.82127493696508       0.410744331886996E-33    0.00000000000000    
      0.714886880953178E-33    2.99926706920258        0.00000000000000    
       0.00000000000000        0.00000000000000        2.81517533831016    
%ENDBLOCK lattice_cart

%BLOCK cell_constraints
      1   2   3
      0   0   0
%ENDBLOCK cell_constraints

%BLOCK positions_frac
   H              0.000000000000000       0.382690427515483       0.448103824756454
   H             -0.000000000000000       0.117309572484516       0.948103824756454
   H             -0.000000000000000       0.882690427515483       0.051896175243546
   H             -0.000000000000000       0.617309572484517       0.551896175243546
   H              0.500000000000000       0.882690427515483       0.448103824756454
   H              0.500000000000000       0.617309572484517       0.948103824756454
   H              0.500000000000000       0.382690427515483       0.051896175243546
   H              0.500000000000000       0.117309572484516       0.551896175243546
%ENDBLOCK positions_frac

FIX_COM : true

%BLOCK species_mass
   AMU
   H          2.014101778    
%ENDBLOCK species_mass

%BLOCK species_gamma
   radsectesla
   H          267522128.0    
%ENDBLOCK species_gamma

%BLOCK species_pot
   H       1|0.6|13|15|17|10(qc=8)
%ENDBLOCK species_pot

SYMMETRY_TOL :     0.001000

%BLOCK symmetry_ops
# Symm. op. 1       E
          1.000000000000000       0.000000000000000       0.000000000000000
          0.000000000000000       1.000000000000000       0.000000000000000
          0.000000000000000       0.000000000000000       1.000000000000000
         -0.000000000000000       0.000000000000000       0.000000000000000
# Symm. op. 2       I
         -1.000000000000000       0.000000000000000       0.000000000000000
          0.000000000000000      -1.000000000000000       0.000000000000000
          0.000000000000000       0.000000000000000      -1.000000000000000
         -0.000000000000000       0.000000000000000       0.000000000000000
# Symm. op. 3     2_1
         -1.000000000000000       0.000000000000000       0.000000000000000
          0.000000000000000      -1.000000000000000       0.000000000000000
          0.000000000000000       0.000000000000000       1.000000000000000
          0.500000000000000       0.000000000000000       0.500000000000000
# Symm. op. 4       a
          1.000000000000000       0.000000000000000       0.000000000000000
          0.000000000000000       1.000000000000000       0.000000000000000
          0.000000000000000       0.000000000000000      -1.000000000000000
          0.500000000000000       0.000000000000000       0.500000000000000
# Symm. op. 5       2
          1.000000000000000       0.000000000000000       0.000000000000000
          0.000000000000000      -1.000000000000000       0.000000000000000
          0.000000000000000       0.000000000000000      -1.000000000000000
         -0.000000000000000       0.000000000000000       0.000000000000000
# Symm. op. 6       m
         -1.000000000000000       0.000000000000000       0.000000000000000
          0.000000000000000       1.000000000000000       0.000000000000000
          0.000000000000000       0.000000000000000       1.000000000000000
         -0.000000000000000       0.000000000000000       0.000000000000000
# Symm. op. 7       2
         -1.000000000000000       0.000000000000000       0.000000000000000
          0.000000000000000       1.000000000000000       0.000000000000000
          0.000000000000000       0.000000000000000      -1.000000000000000
          0.500000000000000       0.000000000000000       0.500000000000000
# Symm. op. 8       n
          1.000000000000000       0.000000000000000       0.000000000000000
          0.000000000000000      -1.000000000000000       0.000000000000000
          0.000000000000000       0.000000000000000       1.000000000000000
          0.500000000000000       0.000000000000000       0.500000000000000
# Symm. op. 9       E
          1.000000000000000       0.000000000000000       0.000000000000000
          0.000000000000000       1.000000000000000       0.000000000000000
          0.000000000000000       0.000000000000000       1.000000000000000
          0.500000000000000       0.500000000000000       0.000000000000000
# Symm. op. 10      I
         -1.000000000000000       0.000000000000000       0.000000000000000
          0.000000000000000      -1.000000000000000       0.000000000000000
          0.000000000000000       0.000000000000000      -1.000000000000000
          0.500000000000000       0.500000000000000       0.000000000000000
# Symm. op. 11    2_1
         -1.000000000000000       0.000000000000000       0.000000000000000
          0.000000000000000      -1.000000000000000       0.000000000000000
          0.000000000000000       0.000000000000000       1.000000000000000
          0.000000000000000       0.500000000000000       0.500000000000000
# Symm. op. 12      b
          1.000000000000000       0.000000000000000       0.000000000000000
          0.000000000000000       1.000000000000000       0.000000000000000
          0.000000000000000       0.000000000000000      -1.000000000000000
          0.000000000000000       0.500000000000000       0.500000000000000
# Symm. op. 13    2_1
          1.000000000000000       0.000000000000000       0.000000000000000
          0.000000000000000      -1.000000000000000       0.000000000000000
          0.000000000000000       0.000000000000000      -1.000000000000000
          0.500000000000000       0.500000000000000       0.000000000000000
# Symm. op. 14      b
         -1.000000000000000       0.000000000000000       0.000000000000000
          0.000000000000000       1.000000000000000       0.000000000000000
          0.000000000000000       0.000000000000000       1.000000000000000
          0.500000000000000       0.500000000000000       0.000000000000000
# Symm. op. 15    2_1
         -1.000000000000000       0.000000000000000       0.000000000000000
          0.000000000000000       1.000000000000000       0.000000000000000
          0.000000000000000       0.000000000000000      -1.000000000000000
          0.000000000000000       0.500000000000000       0.500000000000000
# Symm. op. 16      c
          1.000000000000000       0.000000000000000       0.000000000000000
          0.000000000000000      -1.000000000000000       0.000000000000000
          0.000000000000000       0.000000000000000       1.000000000000000
          0.000000000000000       0.500000000000000       0.500000000000000
%ENDBLOCK symmetry_ops

kpoint_mp_grid :   11  11  11

%BLOCK external_pressure
   GPA
       150.00000000      0.00000000      0.00000000
       150.00000000      0.00000000
       150.00000000
%ENDBLOCK external_pressure

