# CELL file written 20:43:27 (GMT+1.0) 11th August 2020 from run C2c

%BLOCK lattice_cart
   ANG
       6.55730329374582        0.00000000000000      -0.125003289875034E-01
       0.00000000000000        3.79223005596247        0.00000000000000    
      -4.36453268114437        0.00000000000000        3.48915167352381    
%ENDBLOCK lattice_cart

%BLOCK cell_constraints
      1   2   3
      0   5   0
%ENDBLOCK cell_constraints

%BLOCK positions_frac
   H              0.236882591148124      -0.119318974646147       0.258586521198622
   H              0.368831289135516       0.305972868440348       0.243634851656061
   H              0.500000000000000       0.089234063585678       0.750000000000000
   H              0.500000000000000       0.283869284826455       0.750000000000000
   H              0.763117408851877      -0.119318974646147       0.241413478801378
   H              0.631168710864485       0.305972868440348       0.256365148343938
   H              0.736882591148123       0.380681025353852       0.258586521198622
   H              0.868831289135515       0.805972868440349       0.243634851656061
   H             -0.000000000000000       0.589234063585677       0.750000000000000
   H              0.000000000000000       0.783869284826455       0.750000000000000
   H              0.263117408851877       0.380681025353852       0.241413478801378
   H              0.131168710864483       0.805972868440349       0.256365148343938
   H              0.263117408851877       0.619318974646149       0.741413478801379
   H              0.131168710864483       0.194027131559652       0.756365148343940
   H              0.000000000000000       0.410765936414323       0.250000000000000
   H              0.000000000000000       0.216130715173545       0.250000000000000
   H              0.736882591148123       0.619318974646149       0.758586521198621
   H              0.868831289135515       0.194027131559652       0.743634851656060
   H              0.763117408851877       1.119318974646151       0.741413478801379
   H              0.631168710864485       0.694027131559651       0.756365148343940
   H              0.500000000000000       0.910765936414323       0.250000000000000
   H              0.500000000000000       0.716130715173545       0.250000000000000
   H              0.236882591148124       1.119318974646151       0.758586521198621
   H              0.368831289135516       0.694027131559651       0.743634851656060
%ENDBLOCK positions_frac

FIX_COM : true

%BLOCK species_gamma
   radsectesla
   H          267522128.0    
%ENDBLOCK species_gamma

%BLOCK species_pot
   H       0|0.7|2|6|8|10L(qc=10)
%ENDBLOCK species_pot

SYMMETRY_TOL :     0.001000

%BLOCK symmetry_ops
# Symm. op. 1       E
          1.000000000000000       0.000000000000000       0.000000000000000
          0.000000000000000       1.000000000000000       0.000000000000000
         -0.000000000000000       0.000000000000000       1.000000000000000
          0.000000000000000       0.000000000000000       0.000000000000000
# Symm. op. 2       I
         -1.000000000000000       0.000000000000000       0.000000000000000
          0.000000000000000      -1.000000000000000       0.000000000000000
          0.000000000000000       0.000000000000000      -1.000000000000000
         -0.000000000000000      -0.000000000000000      -0.000000000000000
# Symm. op. 3     2_1
         -1.000000000000000       0.000000000000000       0.000000000000000
          0.000000000000000       1.000000000000000       0.000000000000000
          0.000000000000000       0.000000000000000      -1.000000000000000
          0.500000000000000       0.500000000000000       0.500000000000000
# Symm. op. 4       n
          1.000000000000000       0.000000000000000       0.000000000000000
          0.000000000000000      -1.000000000000000       0.000000000000000
         -0.000000000000000       0.000000000000000       1.000000000000000
          0.500000000000000       0.500000000000000       0.500000000000000
# Symm. op. 5       E
          1.000000000000000       0.000000000000000       0.000000000000000
          0.000000000000000       1.000000000000000       0.000000000000000
         -0.000000000000000       0.000000000000000       1.000000000000000
          0.500000000000000       0.500000000000000       0.000000000000000
# Symm. op. 6       I
         -1.000000000000000       0.000000000000000       0.000000000000000
          0.000000000000000      -1.000000000000000       0.000000000000000
          0.000000000000000       0.000000000000000      -1.000000000000000
          0.500000000000000       0.500000000000000      -0.000000000000000
# Symm. op. 7       2
         -1.000000000000000       0.000000000000000       0.000000000000000
          0.000000000000000       1.000000000000000       0.000000000000000
          0.000000000000000       0.000000000000000      -1.000000000000000
         -0.000000000000000       0.000000000000000       0.500000000000000
# Symm. op. 8       c
          1.000000000000000       0.000000000000000       0.000000000000000
          0.000000000000000      -1.000000000000000       0.000000000000000
         -0.000000000000000       0.000000000000000       1.000000000000000
          0.000000000000000      -0.000000000000000       0.500000000000000
%ENDBLOCK symmetry_ops

kpoint_mp_grid :   10  10  10


