# CELL file written 17:11:58 (GMT+1.0) 11th August 2020 from run C2c

%BLOCK lattice_cart
   ANG
       4.87773239870510        0.00000000000000      -0.105412951943615E-01
       0.00000000000000        2.80405225033353        0.00000000000000    
      -3.24721064838715        0.00000000000000        2.56038589789173    
%ENDBLOCK lattice_cart

%BLOCK cell_constraints
      1   2   3
      0   5   0
%ENDBLOCK cell_constraints

%BLOCK positions_frac
   H              0.194118709069298      -0.094653606323315       0.252635443096880
   H              0.358464795182605       0.138490220001723       0.254479117089058
   H              0.500000000000000       0.143028484621073       0.750000000000000
   H              0.500000000000000       0.417894541562464       0.750000000000000
   H              0.805881290930702      -0.094653606323315       0.247364556903120
   H              0.641535204817395       0.138490220001723       0.245520882910942
   H              0.694118709069298       0.405346393676685       0.252635443096880
   H              0.858464795182605       0.638490220001723       0.254479117089058
   H              0.000000000000000       0.643028484621072       0.750000000000000
   H              0.000000000000000       0.917894541562463       0.750000000000000
   H              0.305881290930702       0.405346393676685       0.247364556903120
   H              0.141535204817395       0.638490220001723       0.245520882910942
   H              0.305881290930702       0.594653606323316       0.747364556903120
   H              0.141535204817395       0.361509779998277       0.745520882910942
   H              0.000000000000000       0.356971515378927       0.250000000000000
   H              0.000000000000000       0.082105458437536       0.250000000000000
   H              0.694118709069298       0.594653606323316       0.752635443096880
   H              0.858464795182605       0.361509779998277       0.754479117089058
   H              0.805881290930702       1.094653606323316       0.747364556903120
   H              0.641535204817395       0.861509779998277       0.745520882910942
   H              0.500000000000000       0.856971515378928       0.250000000000000
   H              0.500000000000000       0.582105458437537       0.250000000000000
   H              0.194118709069298       1.094653606323316       0.752635443096880
   H              0.358464795182605       0.861509779998277       0.754479117089058
%ENDBLOCK positions_frac

FIX_COM : true

%BLOCK species_gamma
   radsectesla
   H          267522128.0    
%ENDBLOCK species_gamma

%BLOCK species_pot
   H       0|0.7|2|6|8|10L(qc=10)
%ENDBLOCK species_pot

SYMMETRY_TOL :     0.001000

%BLOCK symmetry_ops
# Symm. op. 1       E
          1.000000000000000       0.000000000000000       0.000000000000000
          0.000000000000000       1.000000000000000       0.000000000000000
         -0.000000000000000       0.000000000000000       1.000000000000000
          0.000000000000000       0.000000000000000       0.000000000000000
# Symm. op. 2       I
         -1.000000000000000       0.000000000000000       0.000000000000000
          0.000000000000000      -1.000000000000000       0.000000000000000
          0.000000000000000       0.000000000000000      -1.000000000000000
         -0.000000000000000      -0.000000000000000      -0.000000000000000
# Symm. op. 3     2_1
         -1.000000000000000       0.000000000000000       0.000000000000000
          0.000000000000000       1.000000000000000       0.000000000000000
          0.000000000000000       0.000000000000000      -1.000000000000000
          0.500000000000000       0.500000000000000       0.500000000000000
# Symm. op. 4       n
          1.000000000000000       0.000000000000000       0.000000000000000
          0.000000000000000      -1.000000000000000       0.000000000000000
         -0.000000000000000       0.000000000000000       1.000000000000000
          0.500000000000000       0.500000000000000       0.500000000000000
# Symm. op. 5       E
          1.000000000000000       0.000000000000000       0.000000000000000
          0.000000000000000       1.000000000000000       0.000000000000000
         -0.000000000000000       0.000000000000000       1.000000000000000
          0.500000000000000       0.500000000000000       0.000000000000000
# Symm. op. 6       I
         -1.000000000000000       0.000000000000000       0.000000000000000
          0.000000000000000      -1.000000000000000       0.000000000000000
          0.000000000000000       0.000000000000000      -1.000000000000000
          0.500000000000000       0.500000000000000      -0.000000000000000
# Symm. op. 7       2
         -1.000000000000000       0.000000000000000       0.000000000000000
          0.000000000000000       1.000000000000000       0.000000000000000
          0.000000000000000       0.000000000000000      -1.000000000000000
         -0.000000000000000       0.000000000000000       0.500000000000000
# Symm. op. 8       c
          1.000000000000000       0.000000000000000       0.000000000000000
          0.000000000000000      -1.000000000000000       0.000000000000000
         -0.000000000000000       0.000000000000000       1.000000000000000
          0.000000000000000      -0.000000000000000       0.500000000000000
%ENDBLOCK symmetry_ops

kpoint_mp_grid :   10  10  10



%BLOCK EXTERNAL_PRESSURE
GPA
270  0   0
    270  0
        270
%ENDBLOCK EXTERNAL_PRESSURE
