# CELL file written 19:24:17 (GMT+1.0) 11th August 2020 from run C2c

%BLOCK lattice_cart
   ANG
       5.77020278476319        0.00000000000000      -0.634639980356374E-02
       0.00000000000000        3.31309712149071        0.00000000000000    
      -3.83831780315424        0.00000000000000        2.99715631572910    
%ENDBLOCK lattice_cart

%BLOCK cell_constraints
      1   2   3
      0   5   0
%ENDBLOCK cell_constraints

%BLOCK positions_frac
   H              0.252448077696037      -0.095450002093055       0.258203610252546
   H              0.352861652098509       0.302533322762224       0.228727188266149
   H              0.500000000000000       0.097275746724788       0.750000000000000
   H              0.500000000000000       0.319581553040992       0.750000000000000
   H              0.747551922303964      -0.095450002093055       0.241796389747454
   H              0.647138347901491       0.302533322762224       0.271272811733851
   H              0.752448077696036       0.404549997906944       0.258203610252546
   H              0.852861652098509       0.802533322762225       0.228727188266149
   H             -0.000000000000000       0.597275746724787       0.750000000000000
   H             -0.000000000000000       0.819581553040992       0.750000000000000
   H              0.247551922303964       0.404549997906944       0.241796389747454
   H              0.147138347901491       0.802533322762225       0.271272811733851
   H              0.247551922303964       0.595450002093057       0.741796389747454
   H              0.147138347901491       0.197466677237776       0.771272811733852
   H              0.000000000000000       0.402724253275213       0.250000000000000
   H              0.000000000000000       0.180418446959008       0.250000000000000
   H              0.752448077696036       0.595450002093057       0.758203610252546
   H              0.852861652098509       0.197466677237776       0.728727188266148
   H              0.747551922303964       1.095450002093058       0.741796389747454
   H              0.647138347901491       0.697466677237775       0.771272811733852
   H              0.500000000000000       0.902724253275213       0.250000000000000
   H              0.500000000000000       0.680418446959008       0.250000000000000
   H              0.252448077696037       1.095450002093058       0.758203610252546
   H              0.352861652098509       0.697466677237775       0.728727188266148
%ENDBLOCK positions_frac

FIX_COM : true

%BLOCK species_gamma
   radsectesla
   H          267522128.0    
%ENDBLOCK species_gamma

%BLOCK species_pot
   H       0|0.7|2|6|8|10L(qc=10)
%ENDBLOCK species_pot

SYMMETRY_TOL :     0.001000

%BLOCK symmetry_ops
# Symm. op. 1       E
          1.000000000000000       0.000000000000000       0.000000000000000
          0.000000000000000       1.000000000000000       0.000000000000000
         -0.000000000000000       0.000000000000000       1.000000000000000
          0.000000000000000       0.000000000000000       0.000000000000000
# Symm. op. 2       I
         -1.000000000000000       0.000000000000000       0.000000000000000
          0.000000000000000      -1.000000000000000       0.000000000000000
          0.000000000000000       0.000000000000000      -1.000000000000000
         -0.000000000000000      -0.000000000000000      -0.000000000000000
# Symm. op. 3     2_1
         -1.000000000000000       0.000000000000000       0.000000000000000
          0.000000000000000       1.000000000000000       0.000000000000000
          0.000000000000000       0.000000000000000      -1.000000000000000
          0.500000000000000       0.500000000000000       0.500000000000000
# Symm. op. 4       n
          1.000000000000000       0.000000000000000       0.000000000000000
          0.000000000000000      -1.000000000000000       0.000000000000000
         -0.000000000000000       0.000000000000000       1.000000000000000
          0.500000000000000       0.500000000000000       0.500000000000000
# Symm. op. 5       E
          1.000000000000000       0.000000000000000       0.000000000000000
          0.000000000000000       1.000000000000000       0.000000000000000
         -0.000000000000000       0.000000000000000       1.000000000000000
          0.500000000000000       0.500000000000000       0.000000000000000
# Symm. op. 6       I
         -1.000000000000000       0.000000000000000       0.000000000000000
          0.000000000000000      -1.000000000000000       0.000000000000000
          0.000000000000000       0.000000000000000      -1.000000000000000
          0.500000000000000       0.500000000000000      -0.000000000000000
# Symm. op. 7       2
         -1.000000000000000       0.000000000000000       0.000000000000000
          0.000000000000000       1.000000000000000       0.000000000000000
          0.000000000000000       0.000000000000000      -1.000000000000000
         -0.000000000000000       0.000000000000000       0.500000000000000
# Symm. op. 8       c
          1.000000000000000       0.000000000000000       0.000000000000000
          0.000000000000000      -1.000000000000000       0.000000000000000
         -0.000000000000000       0.000000000000000       1.000000000000000
          0.000000000000000      -0.000000000000000       0.500000000000000
%ENDBLOCK symmetry_ops

kpoint_mp_grid :   10  10  10



%BLOCK EXTERNAL_PRESSURE
GPA
060  0   0
    060  0
        060
%ENDBLOCK EXTERNAL_PRESSURE
