# CELL file written 18:40:20 (GMT+1.0) 11th August 2020 from run C2c

%BLOCK lattice_cart
   ANG
       5.41896582534961        0.00000000000000      -0.127987826160374E-02
       0.00000000000000        3.09479851293279        0.00000000000000    
      -3.60228307610192        0.00000000000000        2.78072218753614    
%ENDBLOCK lattice_cart

%BLOCK cell_constraints
      1   2   3
      0   5   0
%ENDBLOCK cell_constraints

%BLOCK positions_frac
   H              0.262198068031539      -0.083822533719244       0.256996545385925
   H              0.344656677258103       0.303569468652316       0.221611441726534
   H              0.500000000000000       0.101492072837431       0.750000000000000
   H              0.500000000000000       0.340624092854669       0.750000000000000
   H              0.737801931968461      -0.083822533719244       0.243003454614075
   H              0.655343322741897       0.303569468652316       0.278388558273466
   H              0.762198068031539       0.416177466280756       0.256996545385925
   H              0.844656677258103       0.803569468652317       0.221611441726534
   H              0.000000000000000       0.601492072837430       0.750000000000000
   H              0.000000000000000       0.840624092854669       0.750000000000000
   H              0.237801931968461       0.416177466280756       0.243003454614075
   H              0.155343322741897       0.803569468652317       0.278388558273466
   H              0.237801931968461       0.583822533719246       0.743003454614075
   H              0.155343322741897       0.196430531347684       0.778388558273466
   H              0.000000000000000       0.398507927162569       0.250000000000000
   H              0.000000000000000       0.159375907145331       0.250000000000000
   H              0.762198068031539       0.583822533719246       0.756996545385925
   H              0.844656677258103       0.196430531347684       0.721611441726534
   H              0.737801931968461       1.083822533719246       0.743003454614075
   H              0.655343322741897       0.696430531347683       0.778388558273466
   H              0.500000000000000       0.898507927162570       0.250000000000000
   H              0.500000000000000       0.659375907145331       0.250000000000000
   H              0.262198068031539       1.083822533719246       0.756996545385925
   H              0.344656677258103       0.696430531347683       0.721611441726534
%ENDBLOCK positions_frac

FIX_COM : true

%BLOCK species_gamma
   radsectesla
   H          267522128.0    
%ENDBLOCK species_gamma

%BLOCK species_pot
   H       0|0.7|2|6|8|10L(qc=10)
%ENDBLOCK species_pot

SYMMETRY_TOL :     0.001000

%BLOCK symmetry_ops
# Symm. op. 1       E
          1.000000000000000       0.000000000000000       0.000000000000000
          0.000000000000000       1.000000000000000       0.000000000000000
         -0.000000000000000       0.000000000000000       1.000000000000000
          0.000000000000000       0.000000000000000       0.000000000000000
# Symm. op. 2       I
         -1.000000000000000       0.000000000000000       0.000000000000000
          0.000000000000000      -1.000000000000000       0.000000000000000
          0.000000000000000       0.000000000000000      -1.000000000000000
         -0.000000000000000      -0.000000000000000      -0.000000000000000
# Symm. op. 3     2_1
         -1.000000000000000       0.000000000000000       0.000000000000000
          0.000000000000000       1.000000000000000       0.000000000000000
          0.000000000000000       0.000000000000000      -1.000000000000000
          0.500000000000000       0.500000000000000       0.500000000000000
# Symm. op. 4       n
          1.000000000000000       0.000000000000000       0.000000000000000
          0.000000000000000      -1.000000000000000       0.000000000000000
         -0.000000000000000       0.000000000000000       1.000000000000000
          0.500000000000000       0.500000000000000       0.500000000000000
# Symm. op. 5       E
          1.000000000000000       0.000000000000000       0.000000000000000
          0.000000000000000       1.000000000000000       0.000000000000000
         -0.000000000000000       0.000000000000000       1.000000000000000
          0.500000000000000       0.500000000000000       0.000000000000000
# Symm. op. 6       I
         -1.000000000000000       0.000000000000000       0.000000000000000
          0.000000000000000      -1.000000000000000       0.000000000000000
          0.000000000000000       0.000000000000000      -1.000000000000000
          0.500000000000000       0.500000000000000      -0.000000000000000
# Symm. op. 7       2
         -1.000000000000000       0.000000000000000       0.000000000000000
          0.000000000000000       1.000000000000000       0.000000000000000
          0.000000000000000       0.000000000000000      -1.000000000000000
         -0.000000000000000       0.000000000000000       0.500000000000000
# Symm. op. 8       c
          1.000000000000000       0.000000000000000       0.000000000000000
          0.000000000000000      -1.000000000000000       0.000000000000000
         -0.000000000000000       0.000000000000000       1.000000000000000
          0.000000000000000      -0.000000000000000       0.500000000000000
%ENDBLOCK symmetry_ops

kpoint_mp_grid :   10  10  10



%BLOCK EXTERNAL_PRESSURE
GPA
120  0   0
    120  0
        120
%ENDBLOCK EXTERNAL_PRESSURE
