# CELL file written 18:13:49 (GMT+1.0) 11th August 2020 from run C2c

%BLOCK lattice_cart
   ANG
       5.18793908490686        0.00000000000000       0.127328177867045E-03
       0.00000000000000        2.95563833255935        0.00000000000000    
      -3.44801534079691        0.00000000000000        2.65072940977659    
%ENDBLOCK lattice_cart

%BLOCK cell_constraints
      1   2   3
      0   5   0
%ENDBLOCK cell_constraints

%BLOCK positions_frac
   H              0.267855688365364      -0.076267432486384       0.255531617458993
   H              0.342949413114085       0.304119202852081       0.220579246113103
   H              0.500000000000000       0.101954981600818       0.750000000000000
   H              0.500000000000000       0.353453254271067       0.750000000000000
   H              0.732144311634636      -0.076267432486384       0.244468382541007
   H              0.657050586885915       0.304119202852081       0.279420753886897
   H              0.767855688365364       0.423732567513616       0.255531617458993
   H              0.842949413114085       0.804119202852082       0.220579246113103
   H              0.000000000000000       0.601954981600817       0.750000000000000
   H              0.000000000000000       0.853453254271067       0.750000000000000
   H              0.232144311634636       0.423732567513616       0.244468382541007
   H              0.157050586885915       0.804119202852082       0.279420753886897
   H              0.232144311634636       0.576267432486386       0.744468382541007
   H              0.157050586885915       0.195880797147919       0.779420753886897
   H              0.000000000000000       0.398045018399182       0.250000000000000
   H              0.000000000000000       0.146546745728933       0.250000000000000
   H              0.767855688365364       0.576267432486386       0.755531617458993
   H              0.842949413114085       0.195880797147919       0.720579246113103
   H              0.732144311634636       1.076267432486385       0.744468382541007
   H              0.657050586885915       0.695880797147918       0.779420753886897
   H              0.500000000000000       0.898045018399183       0.250000000000000
   H              0.500000000000000       0.646546745728933       0.250000000000000
   H              0.267855688365364       1.076267432486385       0.755531617458993
   H              0.342949413114085       0.695880797147918       0.720579246113103
%ENDBLOCK positions_frac

FIX_COM : true

%BLOCK species_gamma
   radsectesla
   H          267522128.0    
%ENDBLOCK species_gamma

%BLOCK species_pot
   H       0|0.7|2|6|8|10L(qc=10)
%ENDBLOCK species_pot

SYMMETRY_TOL :     0.001000

%BLOCK symmetry_ops
# Symm. op. 1       E
          1.000000000000000       0.000000000000000       0.000000000000000
          0.000000000000000       1.000000000000000       0.000000000000000
         -0.000000000000000       0.000000000000000       1.000000000000000
          0.000000000000000       0.000000000000000       0.000000000000000
# Symm. op. 2       I
         -1.000000000000000       0.000000000000000       0.000000000000000
          0.000000000000000      -1.000000000000000       0.000000000000000
          0.000000000000000       0.000000000000000      -1.000000000000000
         -0.000000000000000      -0.000000000000000      -0.000000000000000
# Symm. op. 3     2_1
         -1.000000000000000       0.000000000000000       0.000000000000000
          0.000000000000000       1.000000000000000       0.000000000000000
          0.000000000000000       0.000000000000000      -1.000000000000000
          0.500000000000000       0.500000000000000       0.500000000000000
# Symm. op. 4       n
          1.000000000000000       0.000000000000000       0.000000000000000
          0.000000000000000      -1.000000000000000       0.000000000000000
         -0.000000000000000       0.000000000000000       1.000000000000000
          0.500000000000000       0.500000000000000       0.500000000000000
# Symm. op. 5       E
          1.000000000000000       0.000000000000000       0.000000000000000
          0.000000000000000       1.000000000000000       0.000000000000000
         -0.000000000000000       0.000000000000000       1.000000000000000
          0.500000000000000       0.500000000000000       0.000000000000000
# Symm. op. 6       I
         -1.000000000000000       0.000000000000000       0.000000000000000
          0.000000000000000      -1.000000000000000       0.000000000000000
          0.000000000000000       0.000000000000000      -1.000000000000000
          0.500000000000000       0.500000000000000      -0.000000000000000
# Symm. op. 7       2
         -1.000000000000000       0.000000000000000       0.000000000000000
          0.000000000000000       1.000000000000000       0.000000000000000
          0.000000000000000       0.000000000000000      -1.000000000000000
         -0.000000000000000       0.000000000000000       0.500000000000000
# Symm. op. 8       c
          1.000000000000000       0.000000000000000       0.000000000000000
          0.000000000000000      -1.000000000000000       0.000000000000000
         -0.000000000000000       0.000000000000000       1.000000000000000
          0.000000000000000      -0.000000000000000       0.500000000000000
%ENDBLOCK symmetry_ops

kpoint_mp_grid :   10  10  10



%BLOCK EXTERNAL_PRESSURE
GPA
180  0   0
    180  0
        180
%ENDBLOCK EXTERNAL_PRESSURE
