# CELL file written 23:07:32 (GMT+1.0) 30th August 2020 from run Pca21

%BLOCK lattice_cart
   ANG
       3.40577416715541        0.00000000000000        0.00000000000000    
       0.00000000000000        1.97851626873184        0.00000000000000    
       0.00000000000000        0.00000000000000        3.14638571380008    
%ENDBLOCK lattice_cart

%BLOCK cell_constraints
      1   2   3
      0   0   0
%ENDBLOCK cell_constraints

%BLOCK positions_frac
   H              0.352689387849918       0.136454736682978       0.378394196619024
   H              0.480577981392696       0.363490155474298       0.500506036947876
   H              0.980577981392696       0.636509844525701       0.500506036947876
   H              0.852689387849919       0.863545263317022       0.378394196619024
   H              0.019422018607304       0.363490155474298       0.000506036947877
   H              0.147310612150081       0.136454736682978       0.878394196619026
   H              0.519422018607304       0.636509844525701       0.000506036947877
   H              0.647310612150081       0.863545263317022       0.878394196619026
%ENDBLOCK positions_frac

FIX_COM : true

%BLOCK species_mass
   AMU
   H          1.007825032    
%ENDBLOCK species_mass

%BLOCK species_gamma
   radsectesla
   H          267522128.0    
%ENDBLOCK species_gamma

%BLOCK species_pot
   H       0|0.7|2|6|8|10L(qc=10)
%ENDBLOCK species_pot

SYMMETRY_TOL :     0.001000

%BLOCK symmetry_ops
# Symm. op. 1       E
          1.000000000000000       0.000000000000000       0.000000000000000
          0.000000000000000       1.000000000000000       0.000000000000000
          0.000000000000000       0.000000000000000       1.000000000000000
          0.000000000000000       0.000000000000000       0.000000000000000
# Symm. op. 2     2_1
         -1.000000000000000       0.000000000000000       0.000000000000000
          0.000000000000000      -1.000000000000000       0.000000000000000
          0.000000000000000       0.000000000000000       1.000000000000000
         -0.000000000000000      -0.000000000000000       0.500000000000000
# Symm. op. 3       c
         -1.000000000000000       0.000000000000000       0.000000000000000
          0.000000000000000       1.000000000000000       0.000000000000000
          0.000000000000000       0.000000000000000       1.000000000000000
          0.500000000000000       0.000000000000000       0.500000000000000
# Symm. op. 4       a
          1.000000000000000       0.000000000000000       0.000000000000000
          0.000000000000000      -1.000000000000000       0.000000000000000
          0.000000000000000       0.000000000000000       1.000000000000000
          0.500000000000000      -0.000000000000000       0.000000000000000
%ENDBLOCK symmetry_ops

kpoint_mp_grid :   15  15  15



%BLOCK EXTERNAL_PRESSURE
GPA
080  0   0
    080  0
        080
%ENDBLOCK EXTERNAL_PRESSURE
