# CELL file written 23:21:11 (GMT+1.0) 30th August 2020 from run Pca21

%BLOCK lattice_cart
   ANG
       3.30189896705479        0.00000000000000        0.00000000000000    
       0.00000000000000        1.91854767777272        0.00000000000000    
       0.00000000000000        0.00000000000000        3.04077752875980    
%ENDBLOCK lattice_cart

%BLOCK cell_constraints
      1   2   3
      0   0   0
%ENDBLOCK cell_constraints

%BLOCK positions_frac
   H              0.349952459335254       0.131905713110647       0.377960461516721
   H              0.483626407831821       0.366202404693314       0.500939772050179
   H              0.983626407831820       0.633797595306685       0.500939772050179
   H              0.849952459335255       0.868094286889353       0.377960461516721
   H              0.016373592168179       0.366202404693314       0.000939772050180
   H              0.150047540664745       0.131905713110647       0.877960461516723
   H              0.516373592168180       0.633797595306685       0.000939772050180
   H              0.650047540664745       0.868094286889353       0.877960461516723
%ENDBLOCK positions_frac

FIX_COM : true

%BLOCK species_mass
   AMU
   H          1.007825032    
%ENDBLOCK species_mass

%BLOCK species_gamma
   radsectesla
   H          267522128.0    
%ENDBLOCK species_gamma

%BLOCK species_pot
   H       0|0.7|2|6|8|10L(qc=10)
%ENDBLOCK species_pot

SYMMETRY_TOL :     0.001000

%BLOCK symmetry_ops
# Symm. op. 1       E
          1.000000000000000       0.000000000000000       0.000000000000000
          0.000000000000000       1.000000000000000       0.000000000000000
          0.000000000000000       0.000000000000000       1.000000000000000
          0.000000000000000       0.000000000000000       0.000000000000000
# Symm. op. 2     2_1
         -1.000000000000000       0.000000000000000       0.000000000000000
          0.000000000000000      -1.000000000000000       0.000000000000000
          0.000000000000000       0.000000000000000       1.000000000000000
         -0.000000000000000      -0.000000000000000       0.500000000000000
# Symm. op. 3       c
         -1.000000000000000       0.000000000000000       0.000000000000000
          0.000000000000000       1.000000000000000       0.000000000000000
          0.000000000000000       0.000000000000000       1.000000000000000
          0.500000000000000       0.000000000000000       0.500000000000000
# Symm. op. 4       a
          1.000000000000000       0.000000000000000       0.000000000000000
          0.000000000000000      -1.000000000000000       0.000000000000000
          0.000000000000000       0.000000000000000       1.000000000000000
          0.500000000000000      -0.000000000000000       0.000000000000000
%ENDBLOCK symmetry_ops

kpoint_mp_grid :   15  15  15



%BLOCK EXTERNAL_PRESSURE
GPA
100  0   0
    100  0
        100
%ENDBLOCK EXTERNAL_PRESSURE
