# CELL file written 22:59:56 (GMT+1.0) 30th August 2020 from run Pca21

%BLOCK lattice_cart
   ANG
       3.46994768485042        0.00000000000000        0.00000000000000    
       0.00000000000000        2.01562683325026        0.00000000000000    
       0.00000000000000        0.00000000000000        3.21154465425886    
%ENDBLOCK lattice_cart

%BLOCK cell_constraints
      1   2   3
      0   0   0
%ENDBLOCK cell_constraints

%BLOCK positions_frac
   H              0.354228586330703       0.139027362095544       0.378804169659559
   H              0.478897823429352       0.361839929070281       0.500096063907341
   H              0.978897823429352       0.638160070929718       0.500096063907341
   H              0.854228586330704       0.860972637904456       0.378804169659559
   H              0.021102176570648       0.361839929070281       0.000096063907342
   H              0.145771413669296       0.139027362095544       0.878804169659561
   H              0.521102176570648       0.638160070929718       0.000096063907342
   H              0.645771413669296       0.860972637904456       0.878804169659561
%ENDBLOCK positions_frac

FIX_COM : true

%BLOCK species_mass
   AMU
   H          1.007825032    
%ENDBLOCK species_mass

%BLOCK species_gamma
   radsectesla
   H          267522128.0    
%ENDBLOCK species_gamma

%BLOCK species_pot
   H       0|0.7|2|6|8|10L(qc=10)
%ENDBLOCK species_pot

SYMMETRY_TOL :     0.001000

%BLOCK symmetry_ops
# Symm. op. 1       E
          1.000000000000000       0.000000000000000       0.000000000000000
          0.000000000000000       1.000000000000000       0.000000000000000
          0.000000000000000       0.000000000000000       1.000000000000000
          0.000000000000000       0.000000000000000       0.000000000000000
# Symm. op. 2     2_1
         -1.000000000000000       0.000000000000000       0.000000000000000
          0.000000000000000      -1.000000000000000       0.000000000000000
          0.000000000000000       0.000000000000000       1.000000000000000
         -0.000000000000000      -0.000000000000000       0.500000000000000
# Symm. op. 3       c
         -1.000000000000000       0.000000000000000       0.000000000000000
          0.000000000000000       1.000000000000000       0.000000000000000
          0.000000000000000       0.000000000000000       1.000000000000000
          0.500000000000000       0.000000000000000       0.500000000000000
# Symm. op. 4       a
          1.000000000000000       0.000000000000000       0.000000000000000
          0.000000000000000      -1.000000000000000       0.000000000000000
          0.000000000000000       0.000000000000000       1.000000000000000
          0.500000000000000      -0.000000000000000       0.000000000000000
%ENDBLOCK symmetry_ops

kpoint_mp_grid :   15  15  15



%BLOCK EXTERNAL_PRESSURE
GPA
070  0   0
    070  0
        070
%ENDBLOCK EXTERNAL_PRESSURE
