# CELL file written 22:35:04 (GMT+1.0) 30th August 2020 from run Pca21

%BLOCK lattice_cart
   ANG
       3.76245361203885        0.00000000000000        0.00000000000000    
       0.00000000000000        2.18511807038289        0.00000000000000    
       0.00000000000000        0.00000000000000        3.50654367841693    
%ENDBLOCK lattice_cart

%BLOCK cell_constraints
      1   2   3
      0   0   0
%ENDBLOCK cell_constraints

%BLOCK positions_frac
   H              0.359991385147103       0.148971871852527       0.381590132202560
   H              0.472738001715731       0.354748274586959       0.497310101364340
   H              0.972738001715731       0.645251725413040       0.497310101364340
   H              0.859991385147103       0.851028128147474       0.381590132202560
   H              0.027261998284269       0.354748274586959      -0.002689898635659
   H              0.140008614852896       0.148971871852527       0.881590132202560
   H              0.527261998284269       0.645251725413040      -0.002689898635659
   H              0.640008614852897       0.851028128147474       0.881590132202560
%ENDBLOCK positions_frac

FIX_COM : true

%BLOCK species_mass
   AMU
   H          1.007825032    
%ENDBLOCK species_mass

%BLOCK species_gamma
   radsectesla
   H          267522128.0    
%ENDBLOCK species_gamma

%BLOCK species_pot
   H       0|0.7|2|6|8|10L(qc=10)
%ENDBLOCK species_pot

SYMMETRY_TOL :     0.001000

%BLOCK symmetry_ops
# Symm. op. 1       E
          1.000000000000000       0.000000000000000       0.000000000000000
          0.000000000000000       1.000000000000000       0.000000000000000
          0.000000000000000       0.000000000000000       1.000000000000000
          0.000000000000000       0.000000000000000       0.000000000000000
# Symm. op. 2     2_1
         -1.000000000000000       0.000000000000000       0.000000000000000
          0.000000000000000      -1.000000000000000       0.000000000000000
          0.000000000000000       0.000000000000000       1.000000000000000
         -0.000000000000000      -0.000000000000000       0.500000000000000
# Symm. op. 3       c
         -1.000000000000000       0.000000000000000       0.000000000000000
          0.000000000000000       1.000000000000000       0.000000000000000
          0.000000000000000       0.000000000000000       1.000000000000000
          0.500000000000000       0.000000000000000       0.500000000000000
# Symm. op. 4       a
          1.000000000000000       0.000000000000000       0.000000000000000
          0.000000000000000      -1.000000000000000       0.000000000000000
          0.000000000000000       0.000000000000000       1.000000000000000
          0.500000000000000      -0.000000000000000       0.000000000000000
%ENDBLOCK symmetry_ops

kpoint_mp_grid :   15  15  15



%BLOCK EXTERNAL_PRESSURE
GPA
040  0   0
    040  0
        040
%ENDBLOCK EXTERNAL_PRESSURE
