# CELL file written 15:28:31 (GMT+1.0) 17th June 2020 from run P21c

%BLOCK lattice_cart
   ANG
       8.96316167569971        0.00000000000000       0.280115700361015E-02
       0.00000000000000        1.89257790404964        0.00000000000000    
      -5.97629586837386        0.00000000000000        3.26510824237927    
%ENDBLOCK lattice_cart

%BLOCK cell_constraints
      1   2   3
      0   5   0
%ENDBLOCK cell_constraints

%BLOCK positions_frac
   H              0.828598055466845       0.680729543833518       0.093901246014601
   H              0.171401944533155       0.319270456166482       0.906098753985398
   H              0.828598055466845       0.819270456166482       0.593901246014601
   H              0.171401944533155       0.180729543833518       0.406098753985399
   H              0.887271773172350       0.406080299978702       0.227799063958819
   H              0.112728226827650       0.593919700021298       0.772200936041181
   H              0.887271773172350       0.093919700021298       0.727799063958819
   H              0.112728226827650       0.906080299978702       0.272200936041181
   H              0.864883444422239       0.136313337143919       0.422217348088526
   H              0.135116555577761       0.863686662856081       0.577782651911474
   H              0.864883444422239       0.363686662856081       0.922217348088526
   H              0.135116555577761       0.636313337143919       0.077782651911474
   H              0.744679797538134       0.904731168273666       0.241983450184651
   H              0.255320202461866       0.095268831726334       0.758016549815349
   H              0.744679797538134       0.595268831726334       0.741983450184651
   H              0.255320202461866       0.404731168273666       0.258016549815349
   H              0.576744092701218       0.377061756843622       0.196377706755447
   H              0.423255907298781       0.622938243156378       0.803622293244553
   H              0.576744092701218       0.122938243156378       0.696377706755447
   H              0.423255907298781       0.877061756843622       0.303622293244553
   H              0.472289458950700       0.612626026553611       0.129886681997381
   H              0.527710541049300       0.387373973446387       0.870113318002619
   H              0.472289458950700       0.887373973446388       0.629886681997381
   H              0.527710541049300       0.112626026553613       0.370113318002619
%ENDBLOCK positions_frac

FIX_COM : true

%BLOCK species_gamma
   radsectesla
   H          267522128.0    
%ENDBLOCK species_gamma

%BLOCK species_pot
   H       0|0.7|2|6|8|10L(qc=10)
%ENDBLOCK species_pot

SYMMETRY_TOL :     0.001000

%BLOCK symmetry_ops
# Symm. op. 1       E
          1.000000000000000       0.000000000000000       0.000000000000000
          0.000000000000000       1.000000000000000       0.000000000000000
          0.000000000000000       0.000000000000000       1.000000000000000
          0.000000000000000       0.000000000000000       0.000000000000000
# Symm. op. 2       I
         -1.000000000000000       0.000000000000000       0.000000000000000
          0.000000000000000      -1.000000000000000       0.000000000000000
         -0.000000000000000       0.000000000000000      -1.000000000000000
          0.000000000000000       0.000000000000000      -0.000000000000000
# Symm. op. 3     2_1
         -1.000000000000000       0.000000000000000       0.000000000000000
          0.000000000000000       1.000000000000000       0.000000000000000
         -0.000000000000000       0.000000000000000      -1.000000000000000
          0.000000000000000       0.500000000000000       0.500000000000000
# Symm. op. 4       c
          1.000000000000000       0.000000000000000       0.000000000000000
          0.000000000000000      -1.000000000000000       0.000000000000000
          0.000000000000000       0.000000000000000       1.000000000000000
          0.000000000000000       0.500000000000000       0.500000000000000
%ENDBLOCK symmetry_ops

kpoint_mp_grid :    8  13  11

phonon_kpoint_mp_grid :    1   1   1

%BLOCK external_pressure
   GPA
       100.00000000      0.00000000      0.00000000
       100.00000000      0.00000000
       100.00000000
%ENDBLOCK external_pressure

