# CELL file written 18:35:26 (GMT+1.0) 27th June 2020 from run Pbcn

%BLOCK lattice_cart
   ANG
       3.92574319642187      -0.195521314724798E-33    0.00000000000000    
     -0.343734362604466E-33    6.75540884877248        0.00000000000000    
       0.00000000000000        0.00000000000000        6.53866590700510    
%ENDBLOCK lattice_cart

%BLOCK cell_constraints
      1   2   3
      0   0   0
%ENDBLOCK cell_constraints

%BLOCK positions_frac
   H              0.428448020789695       0.125661494778645       0.055301663260405
   H              0.559596948369427       0.205009350099520       0.049060131986788
   H              0.536336958052976       0.541347780951059       0.029658761445109
   H              0.094544958956271       0.170632377865576       0.250234700016241
   H              0.300393108558147       0.385029769926172       0.212077000336092
   H              0.193055553725249       0.444787196182538       0.281777801638054
   H              0.193055553725249       0.555212803817464       0.781777801638054
   H              0.300393108558147       0.614970230073827       0.712077000336093
   H              0.094544958956271       0.829367622134422       0.750234700016240
   H              0.536336958052976       0.458652219048941       0.529658761445108
   H              0.559596948369427       0.794990649900480       0.549060131986790
   H              0.428448020789695       0.874338505221353       0.555301663260404
   H              0.306944446274750       0.944787196182536       0.281777801638054
   H              0.199606891441852       0.885029769926172       0.212077000336092
   H              0.405455041043729       0.670632377865578       0.250234700016241
   H             -0.036336958052977       0.041347780951060       0.029658761445109
   H             -0.059596948369427       0.705009350099520       0.049060131986788
   H              0.071551979210305       0.625661494778647       0.055301663260405
   H              0.693055553725249       0.944787196182536       0.218222198361946
   H              0.800393108558147       0.885029769926172       0.287922999663909
   H              0.594544958956270       0.670632377865578       0.249765299983759
   H              1.036336958052977       0.041347780951060       0.470341238554892
   H              1.059596948369426       0.705009350099520       0.450939868013213
   H              0.928448020789693       0.625661494778647       0.444698336739595
   H              0.806944446274752       0.555212803817464       0.718222198361946
   H              0.699606891441853       0.614970230073827       0.787922999663907
   H              0.905455041043730       0.829367622134422       0.749765299983760
   H              0.463663041947023       0.458652219048941      -0.029658761445109
   H              0.440403051630573       0.794990649900480       0.950939868013210
   H              0.571551979210307       0.874338505221353       0.944698336739596
   H              0.806944446274752       0.444787196182538       0.218222198361946
   H              0.699606891441853       0.385029769926172       0.287922999663909
   H              0.905455041043730       0.170632377865576       0.249765299983759
   H              0.463663041947023       0.541347780951059       0.470341238554892
   H              0.440403051630573       0.205009350099520       0.450939868013213
   H              0.571551979210307       0.125661494778645       0.444698336739595
   H              0.693055553725249       0.055212803817463       0.718222198361946
   H              0.800393108558147       0.114970230073828       0.787922999663907
   H              0.594544958956270       0.329367622134423       0.749765299983760
   H              0.036336958052977      -0.041347780951060      -0.029658761445109
   H              1.059596948369426       0.294990649900479       0.950939868013210
   H              0.928448020789693       0.374338505221354       0.944698336739596
   H              0.306944446274750       0.055212803817463       0.781777801638054
   H              0.199606891441852       0.114970230073828       0.712077000336093
   H              0.405455041043729       0.329367622134423       0.750234700016240
   H              0.963663041947024      -0.041347780951060       0.529658761445108
   H             -0.059596948369427       0.294990649900479       0.549060131986790
   H              0.071551979210305       0.374338505221354       0.555301663260404
%ENDBLOCK positions_frac

FIX_COM : true

%BLOCK species_mass
   AMU
   H          1.007825032    
%ENDBLOCK species_mass

%BLOCK species_gamma
   radsectesla
   H          267522128.0    
%ENDBLOCK species_gamma

%BLOCK species_pot
   H       0|0.7|2|6|8|10L(qc=10)
%ENDBLOCK species_pot

SYMMETRY_TOL :     0.001000

%BLOCK symmetry_ops
# Symm. op. 1       E
          1.000000000000000       0.000000000000000       0.000000000000000
          0.000000000000000       1.000000000000000       0.000000000000000
          0.000000000000000       0.000000000000000       1.000000000000000
          0.000000000000000       0.000000000000000       0.000000000000000
# Symm. op. 2       I
         -1.000000000000000       0.000000000000000       0.000000000000000
          0.000000000000000      -1.000000000000000       0.000000000000000
          0.000000000000000       0.000000000000000      -1.000000000000000
         -0.000000000000000      -0.000000000000000       0.000000000000000
# Symm. op. 3     2_1
         -1.000000000000000       0.000000000000000       0.000000000000000
          0.000000000000000      -1.000000000000000       0.000000000000000
          0.000000000000000       0.000000000000000       1.000000000000000
          0.500000000000000       0.500000000000000       0.500000000000000
# Symm. op. 4       n
          1.000000000000000       0.000000000000000       0.000000000000000
          0.000000000000000       1.000000000000000       0.000000000000000
          0.000000000000000       0.000000000000000      -1.000000000000000
          0.500000000000000       0.500000000000000       0.500000000000000
# Symm. op. 5     2_1
          1.000000000000000       0.000000000000000       0.000000000000000
          0.000000000000000      -1.000000000000000       0.000000000000000
          0.000000000000000       0.000000000000000      -1.000000000000000
          0.500000000000000       0.500000000000000       0.000000000000000
# Symm. op. 6       b
         -1.000000000000000       0.000000000000000       0.000000000000000
          0.000000000000000       1.000000000000000       0.000000000000000
          0.000000000000000       0.000000000000000       1.000000000000000
          0.500000000000000       0.500000000000000       0.000000000000000
# Symm. op. 7       2
         -1.000000000000000       0.000000000000000       0.000000000000000
          0.000000000000000       1.000000000000000       0.000000000000000
          0.000000000000000       0.000000000000000      -1.000000000000000
          0.000000000000000       0.000000000000000       0.500000000000000
# Symm. op. 8       c
          1.000000000000000       0.000000000000000       0.000000000000000
          0.000000000000000      -1.000000000000000       0.000000000000000
          0.000000000000000       0.000000000000000       1.000000000000000
          0.000000000000000      -0.000000000000000       0.500000000000000
%ENDBLOCK symmetry_ops

kpoint_mp_grid :    5   5   5

phonon_kpoint_mp_grid :    8   6   4

%BLOCK external_pressure
   GPA
        30.00000000      0.00000000      0.00000000
        30.00000000      0.00000000
        30.00000000
%ENDBLOCK external_pressure

