# CELL file written 14:45:32 (GMT+1.0) 26th August 2020 from run Cmca4

%BLOCK lattice_cart
   ANG
       1.63290182557148      -0.272155689855194E-35    0.00000000000000    
     -0.572157285691841E-35    2.81757720761048        0.00000000000000    
       0.00000000000000        0.00000000000000        2.55753822384336    
%ENDBLOCK lattice_cart

%BLOCK cell_constraints
      1   2   3
      0   0   0
%ENDBLOCK cell_constraints

%BLOCK positions_frac
   H             -0.000000000000000       0.373420691915806       0.440131003096626
   H             -0.000000000000000       0.126579308084194       0.940131003096626
   H              0.000000000000000       0.873420691915805       0.059868996903374
   H             -0.000000000000000       0.626579308084195       0.559868996903374
   H              0.500000000000000       0.873420691915805       0.440131003096626
   H              0.500000000000000       0.626579308084195       0.940131003096626
   H              0.500000000000000       0.373420691915806       0.059868996903374
   H              0.500000000000000       0.126579308084194       0.559868996903374
%ENDBLOCK positions_frac

FIX_COM : true

%BLOCK species_gamma
   radsectesla
   H          267522128.0    
%ENDBLOCK species_gamma

%BLOCK species_pot
   H       0|0.7|2|6|8|10L(qc=10)
%ENDBLOCK species_pot

SYMMETRY_TOL :     0.001000

%BLOCK symmetry_ops
# Symm. op. 1       E
          1.000000000000000       0.000000000000000       0.000000000000000
          0.000000000000000       1.000000000000000       0.000000000000000
          0.000000000000000       0.000000000000000       1.000000000000000
         -0.000000000000000       0.000000000000000       0.000000000000000
# Symm. op. 2       I
         -1.000000000000000       0.000000000000000       0.000000000000000
          0.000000000000000      -1.000000000000000       0.000000000000000
          0.000000000000000       0.000000000000000      -1.000000000000000
         -0.000000000000000       0.000000000000000       0.000000000000000
# Symm. op. 3     2_1
         -1.000000000000000       0.000000000000000       0.000000000000000
          0.000000000000000      -1.000000000000000       0.000000000000000
          0.000000000000000       0.000000000000000       1.000000000000000
          0.500000000000000       0.000000000000000       0.500000000000000
# Symm. op. 4       a
          1.000000000000000       0.000000000000000       0.000000000000000
          0.000000000000000       1.000000000000000       0.000000000000000
          0.000000000000000       0.000000000000000      -1.000000000000000
          0.500000000000000       0.000000000000000       0.500000000000000
# Symm. op. 5       2
          1.000000000000000       0.000000000000000       0.000000000000000
          0.000000000000000      -1.000000000000000       0.000000000000000
          0.000000000000000       0.000000000000000      -1.000000000000000
         -0.000000000000000       0.000000000000000       0.000000000000000
# Symm. op. 6       m
         -1.000000000000000       0.000000000000000       0.000000000000000
          0.000000000000000       1.000000000000000       0.000000000000000
          0.000000000000000       0.000000000000000       1.000000000000000
         -0.000000000000000       0.000000000000000       0.000000000000000
# Symm. op. 7       2
         -1.000000000000000       0.000000000000000       0.000000000000000
          0.000000000000000       1.000000000000000       0.000000000000000
          0.000000000000000       0.000000000000000      -1.000000000000000
          0.500000000000000       0.000000000000000       0.500000000000000
# Symm. op. 8       n
          1.000000000000000       0.000000000000000       0.000000000000000
          0.000000000000000      -1.000000000000000       0.000000000000000
          0.000000000000000       0.000000000000000       1.000000000000000
          0.500000000000000       0.000000000000000       0.500000000000000
# Symm. op. 9       E
          1.000000000000000       0.000000000000000       0.000000000000000
          0.000000000000000       1.000000000000000       0.000000000000000
          0.000000000000000       0.000000000000000       1.000000000000000
          0.500000000000000       0.500000000000000       0.000000000000000
# Symm. op. 10      I
         -1.000000000000000       0.000000000000000       0.000000000000000
          0.000000000000000      -1.000000000000000       0.000000000000000
          0.000000000000000       0.000000000000000      -1.000000000000000
          0.500000000000000       0.500000000000000       0.000000000000000
# Symm. op. 11    2_1
         -1.000000000000000       0.000000000000000       0.000000000000000
          0.000000000000000      -1.000000000000000       0.000000000000000
          0.000000000000000       0.000000000000000       1.000000000000000
          0.000000000000000       0.500000000000000       0.500000000000000
# Symm. op. 12      b
          1.000000000000000       0.000000000000000       0.000000000000000
          0.000000000000000       1.000000000000000       0.000000000000000
          0.000000000000000       0.000000000000000      -1.000000000000000
          0.000000000000000       0.500000000000000       0.500000000000000
# Symm. op. 13    2_1
          1.000000000000000       0.000000000000000       0.000000000000000
          0.000000000000000      -1.000000000000000       0.000000000000000
          0.000000000000000       0.000000000000000      -1.000000000000000
          0.500000000000000       0.500000000000000       0.000000000000000
# Symm. op. 14      b
         -1.000000000000000       0.000000000000000       0.000000000000000
          0.000000000000000       1.000000000000000       0.000000000000000
          0.000000000000000       0.000000000000000       1.000000000000000
          0.500000000000000       0.500000000000000       0.000000000000000
# Symm. op. 15    2_1
         -1.000000000000000       0.000000000000000       0.000000000000000
          0.000000000000000       1.000000000000000       0.000000000000000
          0.000000000000000       0.000000000000000      -1.000000000000000
          0.000000000000000       0.500000000000000       0.500000000000000
# Symm. op. 16      c
          1.000000000000000       0.000000000000000       0.000000000000000
          0.000000000000000      -1.000000000000000       0.000000000000000
          0.000000000000000       0.000000000000000       1.000000000000000
          0.000000000000000       0.500000000000000       0.500000000000000
%ENDBLOCK symmetry_ops

kpoint_mp_grid :   11  11  11

%BLOCK external_pressure
   GPA
       290.00000000      0.00000000      0.00000000
       290.00000000      0.00000000
       290.00000000
%ENDBLOCK external_pressure

