# CELL file written 15:28:51 (GMT+1.0) 29th July 2020 from run Pbcn

%BLOCK lattice_cart
   ANG
       3.74720265694568      -0.237769579122527E-34    0.00000000000000    
     -0.419823446041535E-34    6.50657630452137        0.00000000000000    
       0.00000000000000        0.00000000000000        6.37376381037431    
%ENDBLOCK lattice_cart

%BLOCK cell_constraints
      1   2   3
      0   0   0
%ENDBLOCK cell_constraints

%BLOCK positions_frac
   H              0.419889244094810       0.128060656036416       0.029094163542437
   H              0.564063324446814       0.201597296820334       0.056846506823997
   H              0.558592087367548       0.544672964804310       0.006717370499732
   H              0.098146522706944       0.168902120557560       0.240556913389800
   H              0.294921017065718       0.368467966266476       0.232457736417188
   H              0.196316209375506       0.463359283463073       0.262603764501136
   H              0.196316209375506       0.536640716536926       0.762603764501136
   H              0.294921017065718       0.631532033733525       0.732457736417186
   H              0.098146522706944       0.831097879442439       0.740556913389803
   H              0.558592087367548       0.455327035195691       0.506717370499733
   H              0.564063324446814       0.798402703179669       0.556846506823997
   H              0.419889244094810       0.871939343963584       0.529094163542438
   H              0.303683790624494       0.963359283463074       0.262603764501136
   H              0.205078982934283       0.868467966266474       0.232457736417188
   H              0.401853477293054       0.668902120557561       0.240556913389800
   H             -0.058592087367547       0.044672964804311       0.006717370499732
   H             -0.064063324446811       0.701597296820331       0.056846506823997
   H              0.080110755905189       0.628060656036416       0.029094163542437
   H              0.696316209375505       0.963359283463074       0.237396235498864
   H              0.794921017065718       0.868467966266474       0.267542263582812
   H              0.598146522706944       0.668902120557561       0.259443086610200
   H              1.058592087367546       0.044672964804311       0.493282629500268
   H              1.064063324446812       0.701597296820331       0.443153493176003
   H              0.919889244094813       0.628060656036416       0.470905836457564
   H              0.803683790624496       0.536640716536926       0.737396235498864
   H              0.705078982934282       0.631532033733525       0.767542263582814
   H              0.901853477293056       0.831097879442439       0.759443086610197
   H              0.441407912632454       0.455327035195691      -0.006717370499732
   H              0.435936675553187       0.798402703179669       0.943153493176003
   H              0.580110755905187       0.871939343963584       0.970905836457562
   H              0.803683790624496       0.463359283463073       0.237396235498864
   H              0.705078982934282       0.368467966266476       0.267542263582812
   H              0.901853477293056       0.168902120557560       0.259443086610200
   H              0.441407912632454       0.544672964804310       0.493282629500268
   H              0.435936675553187       0.201597296820334       0.443153493176003
   H              0.580110755905187       0.128060656036416       0.470905836457564
   H              0.696316209375505       0.036640716536926       0.737396235498864
   H              0.794921017065718       0.131532033733524       0.767542263582814
   H              0.598146522706944       0.331097879442441       0.759443086610197
   H              0.058592087367547      -0.044672964804311      -0.006717370499732
   H              1.064063324446812       0.298402703179667       0.943153493176003
   H              0.919889244094813       0.371939343963586       0.970905836457562
   H              0.303683790624494       0.036640716536926       0.762603764501136
   H              0.205078982934283       0.131532033733524       0.732457736417186
   H              0.401853477293054       0.331097879442441       0.740556913389803
   H              0.941407912632452      -0.044672964804311       0.506717370499733
   H             -0.064063324446811       0.298402703179667       0.556846506823997
   H              0.080110755905189       0.371939343963586       0.529094163542438
%ENDBLOCK positions_frac

FIX_COM : true

%BLOCK species_mass
   AMU
   H          1.007825032    
%ENDBLOCK species_mass

%BLOCK species_gamma
   radsectesla
   H          267522128.0    
%ENDBLOCK species_gamma

%BLOCK species_pot
   H       0|0.7|2|6|8|10L(qc=10)
%ENDBLOCK species_pot

SYMMETRY_TOL :     0.001000

%BLOCK symmetry_ops
# Symm. op. 1       E
          1.000000000000000       0.000000000000000       0.000000000000000
          0.000000000000000       1.000000000000000       0.000000000000000
          0.000000000000000       0.000000000000000       1.000000000000000
          0.000000000000000       0.000000000000000       0.000000000000000
# Symm. op. 2       I
         -1.000000000000000       0.000000000000000       0.000000000000000
          0.000000000000000      -1.000000000000000       0.000000000000000
          0.000000000000000       0.000000000000000      -1.000000000000000
         -0.000000000000000      -0.000000000000000       0.000000000000000
# Symm. op. 3     2_1
         -1.000000000000000       0.000000000000000       0.000000000000000
          0.000000000000000      -1.000000000000000       0.000000000000000
          0.000000000000000       0.000000000000000       1.000000000000000
          0.500000000000000       0.500000000000000       0.500000000000000
# Symm. op. 4       n
          1.000000000000000       0.000000000000000       0.000000000000000
          0.000000000000000       1.000000000000000       0.000000000000000
          0.000000000000000       0.000000000000000      -1.000000000000000
          0.500000000000000       0.500000000000000       0.500000000000000
# Symm. op. 5     2_1
          1.000000000000000       0.000000000000000       0.000000000000000
          0.000000000000000      -1.000000000000000       0.000000000000000
          0.000000000000000       0.000000000000000      -1.000000000000000
          0.500000000000000       0.500000000000000       0.000000000000000
# Symm. op. 6       b
         -1.000000000000000       0.000000000000000       0.000000000000000
          0.000000000000000       1.000000000000000       0.000000000000000
          0.000000000000000       0.000000000000000       1.000000000000000
          0.500000000000000       0.500000000000000       0.000000000000000
# Symm. op. 7       2
         -1.000000000000000       0.000000000000000       0.000000000000000
          0.000000000000000       1.000000000000000       0.000000000000000
          0.000000000000000       0.000000000000000      -1.000000000000000
          0.000000000000000       0.000000000000000       0.500000000000000
# Symm. op. 8       c
          1.000000000000000       0.000000000000000       0.000000000000000
          0.000000000000000      -1.000000000000000       0.000000000000000
          0.000000000000000       0.000000000000000       1.000000000000000
          0.000000000000000      -0.000000000000000       0.500000000000000
%ENDBLOCK symmetry_ops

kpoint_mp_grid :    5   5   5

phonon_kpoint_mp_grid :    8   6   4



%BLOCK EXTERNAL_PRESSURE
GPA
035  0   0
    035  0
        035
%ENDBLOCK EXTERNAL_PRESSURE
