%BLOCK LATTICE_CART
       9.449800000000000       0.000000000000000       0.000000000000000
       0.000000000000000       9.449800000000000       0.000000000000000
       0.000000000000000       0.000000000000000       9.449800000000000
%ENDBLOCK LATTICE_CART

%BLOCK POSITIONS_FRAC
 Li   0.0913949999999999   0.0913949999999999   0.0913949999999999
 Li   0.3413950000000000   0.3413950000000000   0.3413950000000000
 Li   0.1586050000000000   0.4086050000000000   0.3413950000000000
 Li   0.4086050000000000   0.1586050000000000   0.0913949999999999
 Li   0.4086050000000000   0.3413950000000000   0.1586050000000000
 Li   0.1586050000000000   0.0913949999999999   0.4086050000000000
 Li   0.3413950000000000   0.1586050000000000   0.4086050000000000
 Li   0.0913949999999999   0.4086050000000000   0.1586050000000000
 Li   0.2163950000000000   0.2163950000000000   0.2163950000000000
 Li   0.4663950000000000   0.4663950000000000   0.4663950000000000
 Li   0.0336050000000000   0.2836050000000000   0.4663950000000000
 Li   0.2836050000000000   0.0336050000000000   0.2163950000000000
 Li   0.4663950000000000   0.0336050000000000   0.2836050000000000
 Li   0.2163950000000000   0.2836050000000000   0.0336050000000000
 Li   0.2836050000000000   0.4663950000000000   0.0336050000000000
 Li   0.0336050000000000   0.2163950000000000   0.2836050000000000
 Li   0.5913950000000000   0.0913949999999999   0.0913949999999999
 Li   0.8413950000000000   0.3413950000000000   0.3413950000000000
 Li   0.6586050000000000   0.4086050000000000   0.3413950000000000
 Li   0.9086050000000000   0.1586050000000000   0.0913949999999999
 Li   0.9086050000000000   0.3413950000000000   0.1586050000000000
 Li   0.6586050000000000   0.0913949999999999   0.4086050000000000
 Li   0.8413950000000000   0.1586050000000000   0.4086050000000000
 Li   0.5913950000000000   0.4086050000000000   0.1586050000000000
 Li   0.7163950000000000   0.2163950000000000   0.2163950000000000
 Li   0.9663950000000000   0.4663950000000000   0.4663950000000000
 Li   0.5336050000000000   0.2836050000000000   0.4663950000000000
 Li   0.7836049999999999   0.0336050000000000   0.2163950000000000
 Li   0.9663950000000000   0.0336050000000000   0.2836050000000000
 Li   0.7163950000000000   0.2836050000000000   0.0336050000000000
 Li   0.7836049999999999   0.4663950000000000   0.0336050000000000
 Li   0.5336050000000000   0.2163950000000000   0.2836050000000000
 Li   0.0913949999999999   0.5913950000000000   0.0913949999999999
 Li   0.3413950000000000   0.8413950000000000   0.3413950000000000
 Li   0.1586050000000000   0.9086050000000000   0.3413950000000000
 Li   0.4086050000000000   0.6586050000000000   0.0913949999999999
 Li   0.4086050000000000   0.8413950000000000   0.1586050000000000
 Li   0.1586050000000000   0.5913950000000000   0.4086050000000000
 Li   0.3413950000000000   0.6586050000000000   0.4086050000000000
 Li   0.0913949999999999   0.9086050000000000   0.1586050000000000
 Li   0.2163950000000000   0.7163950000000000   0.2163950000000000
 Li   0.4663950000000000   0.9663950000000000   0.4663950000000000
 Li   0.0336050000000000   0.7836049999999999   0.4663950000000000
 Li   0.2836050000000000   0.5336050000000000   0.2163950000000000
 Li   0.4663950000000000   0.5336050000000000   0.2836050000000000
 Li   0.2163950000000000   0.7836049999999999   0.0336050000000000
 Li   0.2836050000000000   0.9663950000000000   0.0336050000000000
 Li   0.0336050000000000   0.7163950000000000   0.2836050000000000
 Li   0.5913950000000000   0.5913950000000000   0.0913949999999999
 Li   0.8413950000000000   0.8413950000000000   0.3413950000000000
 Li   0.6586050000000000   0.9086050000000000   0.3413950000000000
 Li   0.9086050000000000   0.6586050000000000   0.0913949999999999
 Li   0.9086050000000000   0.8413950000000000   0.1586050000000000
 Li   0.6586050000000000   0.5913950000000000   0.4086050000000000
 Li   0.8413950000000000   0.6586050000000000   0.4086050000000000
 Li   0.5913950000000000   0.9086050000000000   0.1586050000000000
 Li   0.7163950000000000   0.7163950000000000   0.2163950000000000
 Li   0.9663950000000000   0.9663950000000000   0.4663950000000000
 Li   0.5336050000000000   0.7836049999999999   0.4663950000000000
 Li   0.7836049999999999   0.5336050000000000   0.2163950000000000
 Li   0.9663950000000000   0.5336050000000000   0.2836050000000000
 Li   0.7163950000000000   0.7836049999999999   0.0336050000000000
 Li   0.7836049999999999   0.9663950000000000   0.0336050000000000
 Li   0.5336050000000000   0.7163950000000000   0.2836050000000000
 Li   0.0913949999999999   0.0913949999999999   0.5913950000000000
 Li   0.3413950000000000   0.3413950000000000   0.8413950000000000
 Li   0.1586050000000000   0.4086050000000000   0.8413950000000000
 Li   0.4086050000000000   0.1586050000000000   0.5913950000000000
 Li   0.4086050000000000   0.3413950000000000   0.6586050000000000
 Li   0.1586050000000000   0.0913949999999999   0.9086050000000000
 Li   0.3413950000000000   0.1586050000000000   0.9086050000000000
 Li   0.0913949999999999   0.4086050000000000   0.6586050000000000
 Li   0.2163950000000000   0.2163950000000000   0.7163950000000000
 Li   0.4663950000000000   0.4663950000000000   0.9663950000000000
 Li   0.0336050000000000   0.2836050000000000   0.9663950000000000
 Li   0.2836050000000000   0.0336050000000000   0.7163950000000000
 Li   0.4663950000000000   0.0336050000000000   0.7836049999999999
 Li   0.2163950000000000   0.2836050000000000   0.5336050000000000
 Li   0.2836050000000000   0.4663950000000000   0.5336050000000000
 Li   0.0336050000000000   0.2163950000000000   0.7836049999999999
 Li   0.5913950000000000   0.0913949999999999   0.5913950000000000
 Li   0.8413950000000000   0.3413950000000000   0.8413950000000000
 Li   0.6586050000000000   0.4086050000000000   0.8413950000000000
 Li   0.9086050000000000   0.1586050000000000   0.5913950000000000
 Li   0.9086050000000000   0.3413950000000000   0.6586050000000000
 Li   0.6586050000000000   0.0913949999999999   0.9086050000000000
 Li   0.8413950000000000   0.1586050000000000   0.9086050000000000
 Li   0.5913950000000000   0.4086050000000000   0.6586050000000000
 Li   0.7163950000000000   0.2163950000000000   0.7163950000000000
 Li   0.9663950000000000   0.4663950000000000   0.9663950000000000
 Li   0.5336050000000000   0.2836050000000000   0.9663950000000000
 Li   0.7836049999999999   0.0336050000000000   0.7163950000000000
 Li   0.9663950000000000   0.0336050000000000   0.7836049999999999
 Li   0.7163950000000000   0.2836050000000000   0.5336050000000000
 Li   0.7836049999999999   0.4663950000000000   0.5336050000000000
 Li   0.5336050000000000   0.2163950000000000   0.7836049999999999
 Li   0.0913949999999999   0.5913950000000000   0.5913950000000000
 Li   0.3413950000000000   0.8413950000000000   0.8413950000000000
 Li   0.1586050000000000   0.9086050000000000   0.8413950000000000
 Li   0.4086050000000000   0.6586050000000000   0.5913950000000000
 Li   0.4086050000000000   0.8413950000000000   0.6586050000000000
 Li   0.1586050000000000   0.5913950000000000   0.9086050000000000
 Li   0.3413950000000000   0.6586050000000000   0.9086050000000000
 Li   0.0913949999999999   0.9086050000000000   0.6586050000000000
 Li   0.2163950000000000   0.7163950000000000   0.7163950000000000
 Li   0.4663950000000000   0.9663950000000000   0.9663950000000000
 Li   0.0336050000000000   0.7836049999999999   0.9663950000000000
 Li   0.2836050000000000   0.5336050000000000   0.7163950000000000
 Li   0.4663950000000000   0.5336050000000000   0.7836049999999999
 Li   0.2163950000000000   0.7836049999999999   0.5336050000000000
 Li   0.2836050000000000   0.9663950000000000   0.5336050000000000
 Li   0.0336050000000000   0.7163950000000000   0.7836049999999999
 Li   0.5913950000000000   0.5913950000000000   0.5913950000000000
 Li   0.8413950000000000   0.8413950000000000   0.8413950000000000
 Li   0.6586050000000000   0.9086050000000000   0.8413950000000000
 Li   0.9086050000000000   0.6586050000000000   0.5913950000000000
 Li   0.9086050000000000   0.8413950000000000   0.6586050000000000
 Li   0.6586050000000000   0.5913950000000000   0.9086050000000000
 Li   0.8413950000000000   0.6586050000000000   0.9086050000000000
 Li   0.5913950000000000   0.9086050000000000   0.6586050000000000
 Li   0.7163950000000000   0.7163950000000000   0.7163950000000000
 Li   0.9663950000000000   0.9663950000000000   0.9663950000000000
 Li   0.5336050000000000   0.7836049999999999   0.9663950000000000
 Li   0.7836049999999999   0.5336050000000000   0.7163950000000000
 Li   0.9663950000000000   0.5336050000000000   0.7836049999999999
 Li   0.7163950000000000   0.7836049999999999   0.5336050000000000
 Li   0.7836049999999999   0.9663950000000000   0.5336050000000000
 Li   0.5336050000000000   0.7163950000000000   0.7836049999999999
%ENDBLOCK POSITIONS_FRAC

# edit:

KPOINT_MP_GRID 2 2 2

%BLOCK species_pot
   Li      1|1.3|8|9|10|10U:20(qc=5)
%ENDBLOCK species_pot

