# CELL file written 20:11:23 (GMT+1.0) 29th July 2020 from run Pbcn

%BLOCK lattice_cart
   ANG
       3.92558153430398      -0.116670820618872E-34    0.00000000000000    
     -0.211842065858658E-34    6.75515258997704        0.00000000000000    
       0.00000000000000        0.00000000000000        6.53848965185394    
%ENDBLOCK lattice_cart

%BLOCK cell_constraints
      1   2   3
      0   0   0
%ENDBLOCK cell_constraints

%BLOCK positions_frac
   H              0.428438004766923       0.125661743290022       0.055284941846373
   H              0.559602301770601       0.205008503824167       0.049066126750014
   H              0.536344461052208       0.541351642765654       0.029653084854043
   H              0.094548994097798       0.170632317701657       0.250231464607760
   H              0.300393695041533       0.385019142775991       0.212084177296926
   H              0.193053689471529       0.444800094837541       0.281768756907505
   H              0.193053689471529       0.555199905162457       0.781768756907505
   H              0.300393695041533       0.614980857224009       0.712084177296925
   H              0.094548994097798       0.829367682298343       0.750231464607763
   H              0.536344461052208       0.458648357234346       0.529653084854044
   H              0.559602301770601       0.794991496175836       0.549066126750014
   H              0.428438004766923       0.874338256709977       0.555284941846374
   H              0.306946310528471       0.944800094837543       0.281768756907505
   H              0.199606304958468       0.885019142775990       0.212084177296926
   H              0.405451005902200       0.670632317701657       0.250231464607760
   H             -0.036344461052207       0.041351642765656       0.029653084854043
   H             -0.059602301770598       0.705008503824164       0.049066126750014
   H              0.071561995233076       0.625661743290023       0.055284941846373
   H              0.693053689471528       0.944800094837543       0.218231243092495
   H              0.800393695041533       0.885019142775990       0.287915822703073
   H              0.594548994097798       0.670632317701657       0.249768535392240
   H              1.036344461052206       0.041351642765656       0.470346915145957
   H              1.059602301770600       0.705008503824164       0.450933873249987
   H              0.928438004766926       0.625661743290023       0.444715058153628
   H              0.806946310528473       0.555199905162457       0.718231243092495
   H              0.699606304958467       0.614980857224009       0.787915822703075
   H              0.905451005902202       0.829367682298343       0.749768535392237
   H              0.463655538947794       0.458648357234346      -0.029653084854043
   H              0.440397698229400       0.794991496175836       0.950933873249986
   H              0.571561995233074       0.874338256709977       0.944715058153626
   H              0.806946310528473       0.444800094837541       0.218231243092495
   H              0.699606304958467       0.385019142775991       0.287915822703073
   H              0.905451005902202       0.170632317701657       0.249768535392240
   H              0.463655538947794       0.541351642765654       0.470346915145957
   H              0.440397698229400       0.205008503824167       0.450933873249987
   H              0.571561995233074       0.125661743290022       0.444715058153628
   H              0.693053689471528       0.055199905162457       0.718231243092495
   H              0.800393695041533       0.114980857224008       0.787915822703075
   H              0.594548994097798       0.329367682298344       0.749768535392237
   H              0.036344461052207      -0.041351642765656      -0.029653084854043
   H              1.059602301770600       0.294991496175834       0.950933873249986
   H              0.928438004766926       0.374338256709979       0.944715058153626
   H              0.306946310528471       0.055199905162457       0.781768756907505
   H              0.199606304958468       0.114980857224008       0.712084177296925
   H              0.405451005902200       0.329367682298344       0.750231464607763
   H              0.963655538947792      -0.041351642765656       0.529653084854044
   H             -0.059602301770598       0.294991496175834       0.549066126750014
   H              0.071561995233076       0.374338256709979       0.555284941846374
%ENDBLOCK positions_frac

FIX_COM : true

%BLOCK species_mass
   AMU
   H          1.007825032    
%ENDBLOCK species_mass

%BLOCK species_gamma
   radsectesla
   H          267522128.0    
%ENDBLOCK species_gamma

%BLOCK species_pot
   H       0|0.7|2|6|8|10L(qc=10)
%ENDBLOCK species_pot

SYMMETRY_TOL :     0.001000

%BLOCK symmetry_ops
# Symm. op. 1       E
          1.000000000000000       0.000000000000000       0.000000000000000
          0.000000000000000       1.000000000000000       0.000000000000000
          0.000000000000000       0.000000000000000       1.000000000000000
          0.000000000000000       0.000000000000000       0.000000000000000
# Symm. op. 2       I
         -1.000000000000000       0.000000000000000       0.000000000000000
          0.000000000000000      -1.000000000000000       0.000000000000000
          0.000000000000000       0.000000000000000      -1.000000000000000
         -0.000000000000000      -0.000000000000000       0.000000000000000
# Symm. op. 3     2_1
         -1.000000000000000       0.000000000000000       0.000000000000000
          0.000000000000000      -1.000000000000000       0.000000000000000
          0.000000000000000       0.000000000000000       1.000000000000000
          0.500000000000000       0.500000000000000       0.500000000000000
# Symm. op. 4       n
          1.000000000000000       0.000000000000000       0.000000000000000
          0.000000000000000       1.000000000000000       0.000000000000000
          0.000000000000000       0.000000000000000      -1.000000000000000
          0.500000000000000       0.500000000000000       0.500000000000000
# Symm. op. 5     2_1
          1.000000000000000       0.000000000000000       0.000000000000000
          0.000000000000000      -1.000000000000000       0.000000000000000
          0.000000000000000       0.000000000000000      -1.000000000000000
          0.500000000000000       0.500000000000000       0.000000000000000
# Symm. op. 6       b
         -1.000000000000000       0.000000000000000       0.000000000000000
          0.000000000000000       1.000000000000000       0.000000000000000
          0.000000000000000       0.000000000000000       1.000000000000000
          0.500000000000000       0.500000000000000       0.000000000000000
# Symm. op. 7       2
         -1.000000000000000       0.000000000000000       0.000000000000000
          0.000000000000000       1.000000000000000       0.000000000000000
          0.000000000000000       0.000000000000000      -1.000000000000000
          0.000000000000000       0.000000000000000       0.500000000000000
# Symm. op. 8       c
          1.000000000000000       0.000000000000000       0.000000000000000
          0.000000000000000      -1.000000000000000       0.000000000000000
          0.000000000000000       0.000000000000000       1.000000000000000
          0.000000000000000      -0.000000000000000       0.500000000000000
%ENDBLOCK symmetry_ops

kpoint_mp_grid :    5   5   5

phonon_kpoint_mp_grid :    8   6   4

%BLOCK external_pressure
   GPA
        30.00000000      0.00000000      0.00000000
        30.00000000      0.00000000
        30.00000000
%ENDBLOCK external_pressure

