# CELL file written 18:18:18 (GMT+1.0) 1st August 2020 from run P21c

%BLOCK lattice_cart
   ANG
       10.5122745646602        0.00000000000000       0.201598657604353E-02
       0.00000000000000        2.18407238698553        0.00000000000000    
      -7.00963568971421        0.00000000000000        3.76428101916167    
%ENDBLOCK lattice_cart

%BLOCK cell_constraints
      1   2   3
      0   5   0
%ENDBLOCK cell_constraints

%BLOCK positions_frac
   H              0.839268160413580       0.638256705280503       0.109455013861074
   H              0.160731839586420       0.361743294719495       0.890544986138925
   H              0.839268160413580       0.861743294719497       0.609455013861074
   H              0.160731839586420       0.138256705280505       0.390544986138926
   H              0.880080607509364       0.407765217729575       0.220013107748707
   H              0.119919392490636       0.592234782270425       0.779986892251295
   H              0.880080607509364       0.092234782270424       0.720013107748705
   H              0.119919392490636       0.907765217729575       0.279986892251293
   H              0.856813275573742       0.109823782800338       0.412142033019494
   H              0.143186724426258       0.890176217199662       0.587857966980506
   H              0.856813275573742       0.390176217199661       0.912142033019494
   H              0.143186724426258       0.609823782800338       0.087857966980506
   H              0.752625076972313       0.911651204964271       0.252702941813917
   H              0.247374923027686       0.088348795035728       0.747297058186084
   H              0.752625076972313       0.588348795035729       0.752702941813916
   H              0.247374923027686       0.411651204964272       0.247297058186083
   H              0.571455518730201       0.399250612652635       0.191592563114532
   H              0.428544481269798       0.600749387347365       0.808407436885469
   H              0.571455518730201       0.100749387347365       0.691592563114531
   H              0.428544481269798       0.899250612652635       0.308407436885467
   H              0.482558484058979       0.590932605239273       0.140835804780455
   H              0.517441515941021       0.409067394760725       0.859164195219544
   H              0.482558484058979       0.909067394760726       0.640835804780456
   H              0.517441515941021       0.090932605239275       0.359164195219545
%ENDBLOCK positions_frac

FIX_COM : true

%BLOCK species_gamma
   radsectesla
   H          267522128.0    
%ENDBLOCK species_gamma

%BLOCK species_pot
   H       0|0.7|2|6|8|10L(qc=10)
%ENDBLOCK species_pot

SYMMETRY_TOL :     0.001000

%BLOCK symmetry_ops
# Symm. op. 1       E
          1.000000000000000       0.000000000000000       0.000000000000000
          0.000000000000000       1.000000000000000       0.000000000000000
          0.000000000000000       0.000000000000000       1.000000000000000
          0.000000000000000       0.000000000000000       0.000000000000000
# Symm. op. 2       I
         -1.000000000000000       0.000000000000000       0.000000000000000
          0.000000000000000      -1.000000000000000       0.000000000000000
         -0.000000000000000       0.000000000000000      -1.000000000000000
          0.000000000000000       0.000000000000000      -0.000000000000000
# Symm. op. 3     2_1
         -1.000000000000000       0.000000000000000       0.000000000000000
          0.000000000000000       1.000000000000000       0.000000000000000
         -0.000000000000000       0.000000000000000      -1.000000000000000
          0.000000000000000       0.500000000000000       0.500000000000000
# Symm. op. 4       c
          1.000000000000000       0.000000000000000       0.000000000000000
          0.000000000000000      -1.000000000000000       0.000000000000000
          0.000000000000000       0.000000000000000       1.000000000000000
          0.000000000000000       0.500000000000000       0.500000000000000
%ENDBLOCK symmetry_ops

kpoint_mp_grid :    8   8   8

phonon_kpoint_mp_grid :    1   1   1

%BLOCK external_pressure
   GPA
        30.00000000      0.00000000      0.00000000
        30.00000000      0.00000000
        30.00000000
%ENDBLOCK external_pressure

