# CELL file written 20:27:38 (GMT+1.0) 22nd July 2020 from run P21c

%BLOCK lattice_cart
   ANG
       8.96316166523721        0.00000000000000       0.280115699033649E-02
       0.00000000000000        1.89257790184201        0.00000000000000    
      -5.97629586140152        0.00000000000000        3.26510823858245    
%ENDBLOCK lattice_cart

%BLOCK cell_constraints
      1   2   3
      0   5   0
%ENDBLOCK cell_constraints

%BLOCK positions_frac
   H              0.828598055465297       0.680729543814328       0.093901246018470
   H              0.171401944534703       0.319270456185671       0.906098753981529
   H              0.828598055465297       0.819270456185672       0.593901246018470
   H              0.171401944534703       0.180729543814329       0.406098753981530
   H              0.887271773163969       0.406080299998971       0.227799063945525
   H              0.112728226836031       0.593919700001029       0.772200936054475
   H              0.887271773163969       0.093919700001029       0.727799063945525
   H              0.112728226836031       0.906080299998971       0.272200936054475
   H              0.864883444413146       0.136313337128102       0.422217348073205
   H              0.135116555586854       0.863686662871898       0.577782651926795
   H              0.864883444413146       0.363686662871898       0.922217348073205
   H              0.135116555586854       0.636313337128102       0.077782651926795
   H              0.744679797549989       0.904731168292907       0.241983450199894
   H              0.255320202450011       0.095268831707093       0.758016549800106
   H              0.744679797549989       0.595268831707093       0.741983450199894
   H              0.255320202450011       0.404731168292907       0.258016549800106
   H              0.576744092693582       0.377061756864457       0.196377706752098
   H              0.423255907306417       0.622938243135543       0.803622293247902
   H              0.576744092693582       0.122938243135543       0.696377706752098
   H              0.423255907306417       0.877061756864457       0.303622293247902
   H              0.472289458959140       0.612626026536527       0.129886682003519
   H              0.527710541040860       0.387373973463471       0.870113317996481
   H              0.472289458959140       0.887373973463472       0.629886682003519
   H              0.527710541040860       0.112626026536529       0.370113317996481
%ENDBLOCK positions_frac

FIX_COM : true

%BLOCK species_gamma
   radsectesla
   H          267522128.0    
%ENDBLOCK species_gamma

%BLOCK species_pot
   H       0|0.7|2|6|8|10L(qc=10)
%ENDBLOCK species_pot

SYMMETRY_TOL :     0.001000

%BLOCK symmetry_ops
# Symm. op. 1       E
          1.000000000000000       0.000000000000000       0.000000000000000
          0.000000000000000       1.000000000000000       0.000000000000000
          0.000000000000000       0.000000000000000       1.000000000000000
          0.000000000000000       0.000000000000000       0.000000000000000
# Symm. op. 2       I
         -1.000000000000000       0.000000000000000       0.000000000000000
          0.000000000000000      -1.000000000000000       0.000000000000000
         -0.000000000000000       0.000000000000000      -1.000000000000000
          0.000000000000000       0.000000000000000      -0.000000000000000
# Symm. op. 3     2_1
         -1.000000000000000       0.000000000000000       0.000000000000000
          0.000000000000000       1.000000000000000       0.000000000000000
         -0.000000000000000       0.000000000000000      -1.000000000000000
          0.000000000000000       0.500000000000000       0.500000000000000
# Symm. op. 4       c
          1.000000000000000       0.000000000000000       0.000000000000000
          0.000000000000000      -1.000000000000000       0.000000000000000
          0.000000000000000       0.000000000000000       1.000000000000000
          0.000000000000000       0.500000000000000       0.500000000000000
%ENDBLOCK symmetry_ops

kpoint_mp_grid :    8  13  11

phonon_kpoint_mp_grid :    1   1   1

%BLOCK external_pressure
   GPA
       100.00000000      0.00000000      0.00000000
       100.00000000      0.00000000
       100.00000000
%ENDBLOCK external_pressure

