# CELL file written 01:42:20 (GMT+1.0) 23rd July 2020 from run P21c

%BLOCK lattice_cart
   ANG
       9.09731319236554        0.00000000000000       0.244619651621819E-02
       0.00000000000000        1.91761316636505        0.00000000000000    
      -6.06588571682622        0.00000000000000        3.30800372466419    
%ENDBLOCK lattice_cart

%BLOCK cell_constraints
      1   2   3
      0   5   0
%ENDBLOCK cell_constraints

%BLOCK positions_frac
   H              0.829745983830796       0.675743158867112       0.095498964517590
   H              0.170254016169204       0.324256841132887       0.904501035482409
   H              0.829745983830796       0.824256841132888       0.595498964517590
   H              0.170254016169204       0.175743158867113       0.404501035482410
   H              0.886539569250199       0.405880731648050       0.227205007035516
   H              0.113460430749801       0.594119268351950       0.772794992964485
   H              0.886539569250199       0.094119268351950       0.727205007035515
   H              0.113460430749801       0.905880731648050       0.272794992964484
   H              0.864008032021923       0.133212838904909       0.421274115936174
   H              0.135991967978077       0.866787161095091       0.578725884063826
   H              0.864008032021923       0.366787161095091       0.921274115936174
   H              0.135991967978077       0.633212838904909       0.078725884063826
   H              0.745420903465629       0.905439818934194       0.242819883741084
   H              0.254579096534371       0.094560181065806       0.757180116258916
   H              0.745420903465629       0.594560181065806       0.742819883741084
   H              0.254579096534371       0.405439818934194       0.257180116258916
   H              0.576330168703492       0.379958711843786       0.195860011423480
   H              0.423669831296507       0.620041288156214       0.804139988576520
   H              0.576330168703492       0.120041288156214       0.695860011423480
   H              0.423669831296507       0.879958711843786       0.304139988576520
   H              0.473468139662853       0.610359628179550       0.131348694539708
   H              0.526531860337147       0.389640371820448       0.868651305460292
   H              0.473468139662853       0.889640371820449       0.631348694539708
   H              0.526531860337147       0.110359628179552       0.368651305460292
%ENDBLOCK positions_frac

FIX_COM : true

%BLOCK species_gamma
   radsectesla
   H          267522128.0    
%ENDBLOCK species_gamma

%BLOCK species_pot
   H       0|0.7|2|6|8|10L(qc=10)
%ENDBLOCK species_pot

SYMMETRY_TOL :     0.001000

%BLOCK symmetry_ops
# Symm. op. 1       E
          1.000000000000000       0.000000000000000       0.000000000000000
          0.000000000000000       1.000000000000000       0.000000000000000
          0.000000000000000       0.000000000000000       1.000000000000000
          0.000000000000000       0.000000000000000       0.000000000000000
# Symm. op. 2       I
         -1.000000000000000       0.000000000000000       0.000000000000000
          0.000000000000000      -1.000000000000000       0.000000000000000
         -0.000000000000000       0.000000000000000      -1.000000000000000
          0.000000000000000       0.000000000000000      -0.000000000000000
# Symm. op. 3     2_1
         -1.000000000000000       0.000000000000000       0.000000000000000
          0.000000000000000       1.000000000000000       0.000000000000000
         -0.000000000000000       0.000000000000000      -1.000000000000000
          0.000000000000000       0.500000000000000       0.500000000000000
# Symm. op. 4       c
          1.000000000000000       0.000000000000000       0.000000000000000
          0.000000000000000      -1.000000000000000       0.000000000000000
          0.000000000000000       0.000000000000000       1.000000000000000
          0.000000000000000       0.500000000000000       0.500000000000000
%ENDBLOCK symmetry_ops

kpoint_mp_grid :    8  13  11

phonon_kpoint_mp_grid :    1   1   1

%BLOCK external_pressure
   GPA
        90.00000000      0.00000000      0.00000000
        90.00000000      0.00000000
        90.00000000
%ENDBLOCK external_pressure

