# CELL file written 12:32:53 (GMT+1.0) 23rd July 2020 from run P21c

%BLOCK lattice_cart
   ANG
       9.41933129787236        0.00000000000000       0.178396342882879E-02
       0.00000000000000        1.97777825465204        0.00000000000000    
      -6.28086875627437        0.00000000000000        3.41103231378131    
%ENDBLOCK lattice_cart

%BLOCK cell_constraints
      1   2   3
      0   5   0
%ENDBLOCK cell_constraints

%BLOCK positions_frac
   H              0.832432232396824       0.665003109369587       0.099186194773292
   H              0.167567767603176       0.334996890630412       0.900813805226708
   H              0.832432232396824       0.834996890630413       0.599186194773291
   H              0.167567767603176       0.165003109369588       0.400813805226708
   H              0.884722697248033       0.405852666810482       0.225555093767172
   H              0.115277302751967       0.594147333189518       0.774444906232829
   H              0.884722697248033       0.094147333189517       0.725555093767171
   H              0.115277302751967       0.905852666810482       0.274444906232828
   H              0.862118686634346       0.126437341917977       0.419090242708503
   H              0.137881313365654       0.873562658082023       0.580909757291497
   H              0.862118686634346       0.373562658082023       0.919090242708503
   H              0.137881313365654       0.626437341917977       0.080909757291497
   H              0.747114185071632       0.907018834971705       0.244918576827774
   H              0.252885814928368       0.092981165028294       0.755081423172227
   H              0.747114185071632       0.592981165028295       0.744918576827773
   H              0.252885814928368       0.407018834971706       0.255081423172226
   H              0.575269199976565       0.385996903973252       0.194695513660010
   H              0.424730800023434       0.614003096026748       0.805304486339990
   H              0.575269199976565       0.114003096026748       0.694695513660010
   H              0.424730800023434       0.885996903973252       0.305304486339990
   H              0.476014355522681       0.605120208410746       0.134383874397735
   H              0.523985644477319       0.394879791589252       0.865616125602265
   H              0.476014355522681       0.894879791589253       0.634383874397735
   H              0.523985644477319       0.105120208410748       0.365616125602265
%ENDBLOCK positions_frac

FIX_COM : true

%BLOCK species_gamma
   radsectesla
   H          267522128.0    
%ENDBLOCK species_gamma

%BLOCK species_pot
   H       0|0.7|2|6|8|10L(qc=10)
%ENDBLOCK species_pot

SYMMETRY_TOL :     0.001000

%BLOCK symmetry_ops
# Symm. op. 1       E
          1.000000000000000       0.000000000000000       0.000000000000000
          0.000000000000000       1.000000000000000       0.000000000000000
          0.000000000000000       0.000000000000000       1.000000000000000
          0.000000000000000       0.000000000000000       0.000000000000000
# Symm. op. 2       I
         -1.000000000000000       0.000000000000000       0.000000000000000
          0.000000000000000      -1.000000000000000       0.000000000000000
         -0.000000000000000       0.000000000000000      -1.000000000000000
          0.000000000000000       0.000000000000000      -0.000000000000000
# Symm. op. 3     2_1
         -1.000000000000000       0.000000000000000       0.000000000000000
          0.000000000000000       1.000000000000000       0.000000000000000
         -0.000000000000000       0.000000000000000      -1.000000000000000
          0.000000000000000       0.500000000000000       0.500000000000000
# Symm. op. 4       c
          1.000000000000000       0.000000000000000       0.000000000000000
          0.000000000000000      -1.000000000000000       0.000000000000000
          0.000000000000000       0.000000000000000       1.000000000000000
          0.000000000000000       0.500000000000000       0.500000000000000
%ENDBLOCK symmetry_ops

kpoint_mp_grid :    8  13  11

phonon_kpoint_mp_grid :    1   1   1

%BLOCK external_pressure
   GPA
        70.00000000      0.00000000      0.00000000
        70.00000000      0.00000000
        70.00000000
%ENDBLOCK external_pressure

