# CELL file written 19:22:29 (GMT+1.0) 5th August 2020 from run Pbcn

%BLOCK lattice_cart
   ANG
       3.63490215898560      -0.105093293870441E-33    0.00000000000000    
     -0.183129650731433E-33    6.31435047300815        0.00000000000000    
       0.00000000000000        0.00000000000000        6.22733694724100    
%ENDBLOCK lattice_cart

%BLOCK cell_constraints
      1   2   3
      0   0   0
%ENDBLOCK cell_constraints

%BLOCK positions_frac
   H              0.416205152218668       0.126398056316288       0.027189248738863
   H              0.565399815908158       0.202629734708921       0.052078451487625
   H              0.561552976372592       0.545650667981525       0.004578202223563
   H              0.102409373149157       0.168973173064979       0.244134899395333
   H              0.296409550702562       0.365660948974863       0.236054107233000
   H              0.194551403087525       0.465993334175027       0.258929195461753
   H              0.194551403087525       0.534006665824973       0.758929195461753
   H              0.296409550702562       0.634339051025137       0.736054107232998
   H              0.102409373149157       0.831026826935020       0.744134899395335
   H              0.561552976372592       0.454349332018476       0.504578202223563
   H              0.565399815908158       0.797370265291082       0.552078451487624
   H              0.416205152218668       0.873601943683712       0.527189248738865
   H              0.305448596912475       0.965993334175027       0.258929195461753
   H              0.203590449297439       0.865660948974862       0.236054107233000
   H              0.397590626850842       0.668973173064980       0.244134899395333
   H             -0.061552976372591       0.045650667981526       0.004578202223563
   H             -0.065399815908155       0.702629734708918       0.052078451487625
   H              0.083794847781331       0.626398056316288       0.027189248738863
   H              0.694551403087524       0.965993334175027       0.241070804538247
   H              0.796409550702561       0.865660948974862       0.263945892767000
   H              0.602409373149157       0.668973173064980       0.255865100604667
   H              1.061552976372590       0.045650667981526       0.495421797776437
   H              1.065399815908156       0.702629734708918       0.447921548512375
   H              0.916205152218670       0.626398056316288       0.472810751261138
   H              0.805448596912477       0.534006665824973       0.741070804538247
   H              0.703590449297439       0.634339051025137       0.763945892767002
   H              0.897590626850843       0.831026826935020       0.755865100604665
   H              0.438447023627410       0.454349332018476      -0.004578202223563
   H              0.434600184091843       0.797370265291082       0.947921548512376
   H              0.583794847781330       0.873601943683712       0.972810751261135
   H              0.805448596912477       0.465993334175027       0.241070804538247
   H              0.703590449297439       0.365660948974863       0.263945892767000
   H              0.897590626850843       0.168973173064979       0.255865100604667
   H              0.438447023627410       0.545650667981525       0.495421797776437
   H              0.434600184091843       0.202629734708921       0.447921548512375
   H              0.583794847781330       0.126398056316288       0.472810751261138
   H              0.694551403087524       0.034006665824972       0.741070804538247
   H              0.796409550702561       0.134339051025137       0.763945892767002
   H              0.602409373149157       0.331026826935021       0.755865100604665
   H              0.061552976372591      -0.045650667981526      -0.004578202223563
   H              1.065399815908156       0.297370265291080       0.947921548512376
   H              0.916205152218670       0.373601943683714       0.972810751261135
   H              0.305448596912475       0.034006665824972       0.758929195461753
   H              0.203590449297439       0.134339051025137       0.736054107232998
   H              0.397590626850842       0.331026826935021       0.744134899395335
   H              0.938447023627408      -0.045650667981526       0.504578202223563
   H             -0.065399815908155       0.297370265291080       0.552078451487624
   H              0.083794847781331       0.373601943683714       0.527189248738865
%ENDBLOCK positions_frac

FIX_COM : true

%BLOCK species_mass
   AMU
   H          1.007825032    
%ENDBLOCK species_mass

%BLOCK species_gamma
   radsectesla
   H          267522128.0    
%ENDBLOCK species_gamma

%BLOCK species_pot
   H       0|0.7|2|6|8|10L(qc=10)
%ENDBLOCK species_pot

SYMMETRY_TOL :     0.001000

%BLOCK symmetry_ops
# Symm. op. 1       E
          1.000000000000000       0.000000000000000       0.000000000000000
          0.000000000000000       1.000000000000000       0.000000000000000
          0.000000000000000       0.000000000000000       1.000000000000000
          0.000000000000000       0.000000000000000       0.000000000000000
# Symm. op. 2       I
         -1.000000000000000       0.000000000000000       0.000000000000000
          0.000000000000000      -1.000000000000000       0.000000000000000
          0.000000000000000       0.000000000000000      -1.000000000000000
         -0.000000000000000      -0.000000000000000       0.000000000000000
# Symm. op. 3     2_1
         -1.000000000000000       0.000000000000000       0.000000000000000
          0.000000000000000      -1.000000000000000       0.000000000000000
          0.000000000000000       0.000000000000000       1.000000000000000
          0.500000000000000       0.500000000000000       0.500000000000000
# Symm. op. 4       n
          1.000000000000000       0.000000000000000       0.000000000000000
          0.000000000000000       1.000000000000000       0.000000000000000
          0.000000000000000       0.000000000000000      -1.000000000000000
          0.500000000000000       0.500000000000000       0.500000000000000
# Symm. op. 5     2_1
          1.000000000000000       0.000000000000000       0.000000000000000
          0.000000000000000      -1.000000000000000       0.000000000000000
          0.000000000000000       0.000000000000000      -1.000000000000000
          0.500000000000000       0.500000000000000       0.000000000000000
# Symm. op. 6       b
         -1.000000000000000       0.000000000000000       0.000000000000000
          0.000000000000000       1.000000000000000       0.000000000000000
          0.000000000000000       0.000000000000000       1.000000000000000
          0.500000000000000       0.500000000000000       0.000000000000000
# Symm. op. 7       2
         -1.000000000000000       0.000000000000000       0.000000000000000
          0.000000000000000       1.000000000000000       0.000000000000000
          0.000000000000000       0.000000000000000      -1.000000000000000
          0.000000000000000       0.000000000000000       0.500000000000000
# Symm. op. 8       c
          1.000000000000000       0.000000000000000       0.000000000000000
          0.000000000000000      -1.000000000000000       0.000000000000000
          0.000000000000000       0.000000000000000       1.000000000000000
          0.000000000000000      -0.000000000000000       0.500000000000000
%ENDBLOCK symmetry_ops

kpoint_mp_grid :    7   7   7

phonon_kpoint_mp_grid :    1   1   1

%BLOCK external_pressure
   GPA
        50.00000000      0.00000000      0.00000000
        50.00000000      0.00000000
        50.00000000
%ENDBLOCK external_pressure

