# CELL file written 15:23:36 (GMT+1.0) 26th August 2020 from run Cmca4

%BLOCK lattice_cart
   ANG
       2.98800079254265      -0.229747173274243E-33    0.00000000000000    
     -0.595099534255234E-33    2.95331573742602        0.00000000000000    
       0.00000000000000        0.00000000000000        2.97412664665603    
%ENDBLOCK lattice_cart

%BLOCK cell_constraints
      1   2   3
      0   0   0
%ENDBLOCK cell_constraints

%BLOCK positions_frac
   H              0.000000000000000       0.409938893750775       0.414283914501590
   H              0.000000000000000       0.090061106249227       0.914283914501590
   H              0.000000000000000       0.909938893750772       0.085716085498410
   H             -0.000000000000000       0.590061106249228       0.585716085498410
   H              0.500000000000000       0.909938893750772       0.414283914501590
   H              0.500000000000000       0.590061106249228       0.914283914501590
   H              0.500000000000000       0.409938893750775       0.085716085498410
   H              0.500000000000000       0.090061106249227       0.585716085498410
%ENDBLOCK positions_frac

FIX_COM : true

%BLOCK species_gamma
   radsectesla
   H          267522128.0    
%ENDBLOCK species_gamma

%BLOCK species_pot
   H       0|0.7|2|6|8|10L(qc=10)
%ENDBLOCK species_pot

SYMMETRY_TOL :     0.001000

%BLOCK symmetry_ops
# Symm. op. 1       E
          1.000000000000000       0.000000000000000       0.000000000000000
          0.000000000000000       1.000000000000000       0.000000000000000
          0.000000000000000       0.000000000000000       1.000000000000000
         -0.000000000000000       0.000000000000000       0.000000000000000
# Symm. op. 2       I
         -1.000000000000000       0.000000000000000       0.000000000000000
          0.000000000000000      -1.000000000000000       0.000000000000000
          0.000000000000000       0.000000000000000      -1.000000000000000
         -0.000000000000000       0.000000000000000       0.000000000000000
# Symm. op. 3     2_1
         -1.000000000000000       0.000000000000000       0.000000000000000
          0.000000000000000      -1.000000000000000       0.000000000000000
          0.000000000000000       0.000000000000000       1.000000000000000
          0.500000000000000       0.000000000000000       0.500000000000000
# Symm. op. 4       a
          1.000000000000000       0.000000000000000       0.000000000000000
          0.000000000000000       1.000000000000000       0.000000000000000
          0.000000000000000       0.000000000000000      -1.000000000000000
          0.500000000000000       0.000000000000000       0.500000000000000
# Symm. op. 5       2
          1.000000000000000       0.000000000000000       0.000000000000000
          0.000000000000000      -1.000000000000000       0.000000000000000
          0.000000000000000       0.000000000000000      -1.000000000000000
         -0.000000000000000       0.000000000000000       0.000000000000000
# Symm. op. 6       m
         -1.000000000000000       0.000000000000000       0.000000000000000
          0.000000000000000       1.000000000000000       0.000000000000000
          0.000000000000000       0.000000000000000       1.000000000000000
         -0.000000000000000       0.000000000000000       0.000000000000000
# Symm. op. 7       2
         -1.000000000000000       0.000000000000000       0.000000000000000
          0.000000000000000       1.000000000000000       0.000000000000000
          0.000000000000000       0.000000000000000      -1.000000000000000
          0.500000000000000       0.000000000000000       0.500000000000000
# Symm. op. 8       n
          1.000000000000000       0.000000000000000       0.000000000000000
          0.000000000000000      -1.000000000000000       0.000000000000000
          0.000000000000000       0.000000000000000       1.000000000000000
          0.500000000000000       0.000000000000000       0.500000000000000
# Symm. op. 9       E
          1.000000000000000       0.000000000000000       0.000000000000000
          0.000000000000000       1.000000000000000       0.000000000000000
          0.000000000000000       0.000000000000000       1.000000000000000
          0.500000000000000       0.500000000000000       0.000000000000000
# Symm. op. 10      I
         -1.000000000000000       0.000000000000000       0.000000000000000
          0.000000000000000      -1.000000000000000       0.000000000000000
          0.000000000000000       0.000000000000000      -1.000000000000000
          0.500000000000000       0.500000000000000       0.000000000000000
# Symm. op. 11    2_1
         -1.000000000000000       0.000000000000000       0.000000000000000
          0.000000000000000      -1.000000000000000       0.000000000000000
          0.000000000000000       0.000000000000000       1.000000000000000
          0.000000000000000       0.500000000000000       0.500000000000000
# Symm. op. 12      b
          1.000000000000000       0.000000000000000       0.000000000000000
          0.000000000000000       1.000000000000000       0.000000000000000
          0.000000000000000       0.000000000000000      -1.000000000000000
          0.000000000000000       0.500000000000000       0.500000000000000
# Symm. op. 13    2_1
          1.000000000000000       0.000000000000000       0.000000000000000
          0.000000000000000      -1.000000000000000       0.000000000000000
          0.000000000000000       0.000000000000000      -1.000000000000000
          0.500000000000000       0.500000000000000       0.000000000000000
# Symm. op. 14      b
         -1.000000000000000       0.000000000000000       0.000000000000000
          0.000000000000000       1.000000000000000       0.000000000000000
          0.000000000000000       0.000000000000000       1.000000000000000
          0.500000000000000       0.500000000000000       0.000000000000000
# Symm. op. 15    2_1
         -1.000000000000000       0.000000000000000       0.000000000000000
          0.000000000000000       1.000000000000000       0.000000000000000
          0.000000000000000       0.000000000000000      -1.000000000000000
          0.000000000000000       0.500000000000000       0.500000000000000
# Symm. op. 16      c
          1.000000000000000       0.000000000000000       0.000000000000000
          0.000000000000000      -1.000000000000000       0.000000000000000
          0.000000000000000       0.000000000000000       1.000000000000000
          0.000000000000000       0.500000000000000       0.500000000000000
%ENDBLOCK symmetry_ops

kpoint_mp_grid :   11  11  11



%BLOCK EXTERNAL_PRESSURE
GPA
030  0   0
    030  0
        030
%ENDBLOCK EXTERNAL_PRESSURE
