# CELL file written 02:21:04 (GMT+1.0) 28th July 2020 from run Pbcn

%BLOCK lattice_cart
   ANG
       3.92574367085638      -0.160406411120861E-33    0.00000000000000    
     -0.281932622389623E-33    6.75540831993823        0.00000000000000    
       0.00000000000000        0.00000000000000        6.53866567248925    
%ENDBLOCK lattice_cart

%BLOCK cell_constraints
      1   2   3
      0   0   0
%ENDBLOCK cell_constraints

%BLOCK positions_frac
   H              0.428448035941386       0.125661503603967       0.055301524086952
   H              0.559596925191595       0.205009397408260       0.049060300930517
   H              0.536336986382093       0.541347784640991       0.029658745860643
   H              0.094544939936576       0.170632419797964       0.250234630985855
   H              0.300393059791651       0.385029810531817       0.212076992858406
   H              0.193055550160362       0.444787267786517       0.281777778661646
   H              0.193055550160362       0.555212732213481       0.781777778661646
   H              0.300393059791651       0.614970189468182       0.712076992858404
   H              0.094544939936576       0.829367580202035       0.750234630985855
   H              0.536336986382093       0.458652215359011       0.529658745860643
   H              0.559596925191595       0.794990602591743       0.549060300930517
   H              0.428448035941386       0.874338496396033       0.555301524086953
   H              0.306944449839638       0.944787267786519       0.281777778661646
   H              0.199606940208349       0.885029810531817       0.212076992858406
   H              0.405455060063423       0.670632419797965       0.250234630985855
   H             -0.036336986382093       0.041347784640991       0.029658745860643
   H             -0.059596925191593       0.705009397408257       0.049060300930517
   H              0.071551964058613       0.625661503603967       0.055301524086952
   H              0.693055550160362       0.944787267786519       0.218222221338354
   H              0.800393059791653       0.885029810531817       0.287923007141595
   H              0.594544939936576       0.670632419797965       0.249765369014145
   H              1.036336986382093       0.041347784640991       0.470341254139357
   H              1.059596925191594       0.705009397408257       0.450939699069483
   H              0.928448035941388       0.625661503603967       0.444698475913050
   H              0.806944449839639       0.555212732213481       0.718222221338354
   H              0.699606940208347       0.614970189468182       0.787923007141596
   H              0.905455060063424       0.829367580202035       0.749765369014145
   H              0.463663013617908       0.458652215359011      -0.029658745860643
   H              0.440403074808405       0.794990602591743       0.950939699069483
   H              0.571551964058612       0.874338496396033       0.944698475913047
   H              0.806944449839639       0.444787267786517       0.218222221338354
   H              0.699606940208347       0.385029810531817       0.287923007141595
   H              0.905455060063424       0.170632419797964       0.249765369014145
   H              0.463663013617908       0.541347784640991       0.470341254139357
   H              0.440403074808405       0.205009397408260       0.450939699069483
   H              0.571551964058612       0.125661503603967       0.444698475913050
   H              0.693055550160362       0.055212732213482       0.718222221338354
   H              0.800393059791653       0.114970189468183       0.787923007141596
   H              0.594544939936576       0.329367580202036       0.749765369014145
   H              0.036336986382093      -0.041347784640991      -0.029658745860643
   H              1.059596925191594       0.294990602591741       0.950939699069483
   H              0.928448035941388       0.374338496396035       0.944698475913047
   H              0.306944449839638       0.055212732213482       0.781777778661646
   H              0.199606940208349       0.114970189468183       0.712076992858404
   H              0.405455060063423       0.329367580202036       0.750234630985855
   H              0.963663013617907      -0.041347784640991       0.529658745860643
   H             -0.059596925191593       0.294990602591741       0.549060300930517
   H              0.071551964058613       0.374338496396035       0.555301524086953
%ENDBLOCK positions_frac

FIX_COM : true

%BLOCK species_mass
   AMU
   H          1.007825032    
%ENDBLOCK species_mass

%BLOCK species_gamma
   radsectesla
   H          267522128.0    
%ENDBLOCK species_gamma

%BLOCK species_pot
   H       0|0.7|2|6|8|10L(qc=10)
%ENDBLOCK species_pot

SYMMETRY_TOL :     0.001000

%BLOCK symmetry_ops
# Symm. op. 1       E
          1.000000000000000       0.000000000000000       0.000000000000000
          0.000000000000000       1.000000000000000       0.000000000000000
          0.000000000000000       0.000000000000000       1.000000000000000
          0.000000000000000       0.000000000000000       0.000000000000000
# Symm. op. 2       I
         -1.000000000000000       0.000000000000000       0.000000000000000
          0.000000000000000      -1.000000000000000       0.000000000000000
          0.000000000000000       0.000000000000000      -1.000000000000000
         -0.000000000000000      -0.000000000000000       0.000000000000000
# Symm. op. 3     2_1
         -1.000000000000000       0.000000000000000       0.000000000000000
          0.000000000000000      -1.000000000000000       0.000000000000000
          0.000000000000000       0.000000000000000       1.000000000000000
          0.500000000000000       0.500000000000000       0.500000000000000
# Symm. op. 4       n
          1.000000000000000       0.000000000000000       0.000000000000000
          0.000000000000000       1.000000000000000       0.000000000000000
          0.000000000000000       0.000000000000000      -1.000000000000000
          0.500000000000000       0.500000000000000       0.500000000000000
# Symm. op. 5     2_1
          1.000000000000000       0.000000000000000       0.000000000000000
          0.000000000000000      -1.000000000000000       0.000000000000000
          0.000000000000000       0.000000000000000      -1.000000000000000
          0.500000000000000       0.500000000000000       0.000000000000000
# Symm. op. 6       b
         -1.000000000000000       0.000000000000000       0.000000000000000
          0.000000000000000       1.000000000000000       0.000000000000000
          0.000000000000000       0.000000000000000       1.000000000000000
          0.500000000000000       0.500000000000000       0.000000000000000
# Symm. op. 7       2
         -1.000000000000000       0.000000000000000       0.000000000000000
          0.000000000000000       1.000000000000000       0.000000000000000
          0.000000000000000       0.000000000000000      -1.000000000000000
          0.000000000000000       0.000000000000000       0.500000000000000
# Symm. op. 8       c
          1.000000000000000       0.000000000000000       0.000000000000000
          0.000000000000000      -1.000000000000000       0.000000000000000
          0.000000000000000       0.000000000000000       1.000000000000000
          0.000000000000000      -0.000000000000000       0.500000000000000
%ENDBLOCK symmetry_ops

kpoint_mp_grid :    5   5   5

phonon_kpoint_mp_grid :    8   6   4

%BLOCK external_pressure
   GPA
        30.00000000      0.00000000      0.00000000
        30.00000000      0.00000000
        30.00000000
%ENDBLOCK external_pressure

