# CELL file written 13:50:55 (GMT+1.0) 21st August 2020 from run P21c

%BLOCK lattice_cart
   ANG
       9.09731394774468        0.00000000000000       0.244646438796664E-02
       0.00000000000000        1.91761275917130        0.00000000000000    
      -6.06588612294499        0.00000000000000        3.30800380490285    
%ENDBLOCK lattice_cart

%BLOCK cell_constraints
      1   2   3
      0   5   0
%ENDBLOCK cell_constraints

%BLOCK positions_frac
   H              0.829745045002051       0.675742957695829       0.095498244932949
   H              0.170254954997949       0.324257042304170       0.904501755067050
   H              0.829745045002051       0.824257042304171       0.595498244932949
   H              0.170254954997949       0.175742957695830       0.404501755067052
   H              0.886540735307333       0.405880703396594       0.227206040463380
   H              0.113459264692667       0.594119296603406       0.772793959536620
   H              0.886540735307333       0.094119296603406       0.727206040463380
   H              0.113459264692667       0.905880703396594       0.272793959536620
   H              0.864007812488495       0.133213196893222       0.421273852809679
   H              0.135992187511504       0.866786803106778       0.578726147190321
   H              0.864007812488495       0.366786803106778       0.921273852809679
   H              0.135992187511504       0.633213196893222       0.078726147190321
   H              0.745421098546804       0.905438830606431       0.242820189285413
   H              0.254578901453196       0.094561169393570       0.757179810714587
   H              0.745421098546804       0.594561169393569       0.742820189285413
   H              0.254578901453196       0.405438830606430       0.257179810714587
   H              0.576330092415730       0.379959294338766       0.195860039762994
   H              0.423669907584269       0.620040705661234       0.804139960237006
   H              0.576330092415730       0.120040705661234       0.695860039762994
   H              0.423669907584269       0.879959294338766       0.304139960237006
   H              0.473467790119049       0.610360469224837       0.131348134959337
   H              0.526532209880951       0.389639530775162       0.868651865040663
   H              0.473467790119049       0.889639530775162       0.631348134959337
   H              0.526532209880951       0.110360469224838       0.368651865040663
%ENDBLOCK positions_frac

FIX_COM : true

%BLOCK species_gamma
   radsectesla
   H          267522128.0    
%ENDBLOCK species_gamma

%BLOCK species_pot
   H       0|0.7|2|6|8|10L(qc=10)
%ENDBLOCK species_pot

SYMMETRY_TOL :     0.001000

%BLOCK symmetry_ops
# Symm. op. 1       E
          1.000000000000000       0.000000000000000       0.000000000000000
          0.000000000000000       1.000000000000000       0.000000000000000
          0.000000000000000       0.000000000000000       1.000000000000000
          0.000000000000000       0.000000000000000       0.000000000000000
# Symm. op. 2       I
         -1.000000000000000       0.000000000000000       0.000000000000000
          0.000000000000000      -1.000000000000000       0.000000000000000
         -0.000000000000000       0.000000000000000      -1.000000000000000
          0.000000000000000       0.000000000000000      -0.000000000000000
# Symm. op. 3     2_1
         -1.000000000000000       0.000000000000000       0.000000000000000
          0.000000000000000       1.000000000000000       0.000000000000000
         -0.000000000000000       0.000000000000000      -1.000000000000000
          0.000000000000000       0.500000000000000       0.500000000000000
# Symm. op. 4       c
          1.000000000000000       0.000000000000000       0.000000000000000
          0.000000000000000      -1.000000000000000       0.000000000000000
          0.000000000000000       0.000000000000000       1.000000000000000
          0.000000000000000       0.500000000000000       0.500000000000000
%ENDBLOCK symmetry_ops

kpoint_mp_grid :    8  13  11



%BLOCK EXTERNAL_PRESSURE
GPA
080  0   0
    080  0
        080
%ENDBLOCK EXTERNAL_PRESSURE
