# CELL file written 17:14:39 (GMT+1.0) 21st August 2020 from run P21c

%BLOCK lattice_cart
   ANG
       9.41933500760959        0.00000000000000       0.178745041902691E-02
       0.00000000000000        1.97777808846250        0.00000000000000    
      -6.28086996141055        0.00000000000000        3.41102958557890    
%ENDBLOCK lattice_cart

%BLOCK cell_constraints
      1   2   3
      0   5   0
%ENDBLOCK cell_constraints

%BLOCK positions_frac
   H              0.832432171064856       0.665002161899072       0.099185691946699
   H              0.167567828935144       0.334997838100927       0.900814308053300
   H              0.832432171064856       0.834997838100928       0.599185691946699
   H              0.167567828935144       0.165002161899072       0.400814308053302
   H              0.884722747207119       0.405854707024039       0.225555626015995
   H              0.115277252792880       0.594145292975961       0.774444373984004
   H              0.884722747207119       0.094145292975961       0.725555626015996
   H              0.115277252792880       0.905854707024039       0.274444373984005
   H              0.862118132706053       0.126436961170841       0.419090327956792
   H              0.137881867293945       0.873563038829159       0.580909672043208
   H              0.862118132706053       0.373563038829159       0.919090327956792
   H              0.137881867293945       0.626436961170841       0.080909672043208
   H              0.747114970070293       0.907017877441352       0.244918963447647
   H              0.252885029929707       0.092982122558649       0.755081036552353
   H              0.747114970070293       0.592982122558648       0.744918963447647
   H              0.252885029929707       0.407017877441351       0.255081036552353
   H              0.575268422324769       0.385996797339531       0.194694181365061
   H              0.424731577675230       0.614003202660469       0.805305818634939
   H              0.575268422324769       0.114003202660469       0.694694181365061
   H              0.424731577675230       0.885996797339531       0.305305818634939
   H              0.476014352721740       0.605119185757532       0.134384136179711
   H              0.523985647278260       0.394880814242467       0.865615863820290
   H              0.476014352721740       0.894880814242467       0.634384136179710
   H              0.523985647278260       0.105119185757533       0.365615863820289
%ENDBLOCK positions_frac

FIX_COM : true

%BLOCK species_gamma
   radsectesla
   H          267522128.0    
%ENDBLOCK species_gamma

%BLOCK species_pot
   H       0|0.7|2|6|8|10L(qc=10)
%ENDBLOCK species_pot

SYMMETRY_TOL :     0.001000

%BLOCK symmetry_ops
# Symm. op. 1       E
          1.000000000000000       0.000000000000000       0.000000000000000
          0.000000000000000       1.000000000000000       0.000000000000000
          0.000000000000000       0.000000000000000       1.000000000000000
          0.000000000000000       0.000000000000000       0.000000000000000
# Symm. op. 2       I
         -1.000000000000000       0.000000000000000       0.000000000000000
          0.000000000000000      -1.000000000000000       0.000000000000000
         -0.000000000000000       0.000000000000000      -1.000000000000000
          0.000000000000000       0.000000000000000      -0.000000000000000
# Symm. op. 3     2_1
         -1.000000000000000       0.000000000000000       0.000000000000000
          0.000000000000000       1.000000000000000       0.000000000000000
         -0.000000000000000       0.000000000000000      -1.000000000000000
          0.000000000000000       0.500000000000000       0.500000000000000
# Symm. op. 4       c
          1.000000000000000       0.000000000000000       0.000000000000000
          0.000000000000000      -1.000000000000000       0.000000000000000
          0.000000000000000       0.000000000000000       1.000000000000000
          0.000000000000000       0.500000000000000       0.500000000000000
%ENDBLOCK symmetry_ops

kpoint_mp_grid :    8  13  11



%BLOCK EXTERNAL_PRESSURE
GPA
060  0   0
    060  0
        060
%ENDBLOCK EXTERNAL_PRESSURE
