# CELL file written 15:26:19 (GMT+1.0) 21st August 2020 from run P21c

%BLOCK lattice_cart
   ANG
       9.24797746012898        0.00000000000000       0.211273452348325E-02
       0.00000000000000        1.94573631682610        0.00000000000000    
      -6.16647949905747        0.00000000000000        3.35616918666877    
%ENDBLOCK lattice_cart

%BLOCK cell_constraints
      1   2   3
      0   5   0
%ENDBLOCK cell_constraints

%BLOCK positions_frac
   H              0.831030406217526       0.670509491069528       0.097257092233568
   H              0.168969593782474       0.329490508930471       0.902742907766431
   H              0.831030406217526       0.829490508930472       0.597257092233568
   H              0.168969593782474       0.170509491069528       0.402742907766433
   H              0.885681791947434       0.405809150355367       0.226458281047049
   H              0.114318208052566       0.594190849644633       0.773541718952951
   H              0.885681791947434       0.094190849644633       0.726458281047049
   H              0.114318208052566       0.905809150355367       0.273541718952951
   H              0.863090505364356       0.129922701546942       0.420242847898189
   H              0.136909494635642       0.870077298453058       0.579757152101811
   H              0.863090505364356       0.370077298453058       0.920242847898189
   H              0.136909494635642       0.629922701546942       0.079757152101811
   H              0.746229811401494       0.906199039939890       0.243787493539575
   H              0.253770188598506       0.093800960060111       0.756212506460424
   H              0.746229811401494       0.593800960060110       0.743787493539576
   H              0.253770188598506       0.406199039939889       0.256212506460425
   H              0.575838151346774       0.382931475820599       0.195289831385473
   H              0.424161848653225       0.617068524179401       0.804710168614527
   H              0.575838151346774       0.117068524179401       0.695289831385473
   H              0.424161848653225       0.882931475820599       0.304710168614527
   H              0.474712573407401       0.607854041650825       0.132862418291102
   H              0.525287426592599       0.392145958349174       0.867137581708899
   H              0.474712573407401       0.892145958349174       0.632862418291101
   H              0.525287426592599       0.107854041650826       0.367137581708898
%ENDBLOCK positions_frac

FIX_COM : true

%BLOCK species_gamma
   radsectesla
   H          267522128.0    
%ENDBLOCK species_gamma

%BLOCK species_pot
   H       0|0.7|2|6|8|10L(qc=10)
%ENDBLOCK species_pot

SYMMETRY_TOL :     0.001000

%BLOCK symmetry_ops
# Symm. op. 1       E
          1.000000000000000       0.000000000000000       0.000000000000000
          0.000000000000000       1.000000000000000       0.000000000000000
          0.000000000000000       0.000000000000000       1.000000000000000
          0.000000000000000       0.000000000000000       0.000000000000000
# Symm. op. 2       I
         -1.000000000000000       0.000000000000000       0.000000000000000
          0.000000000000000      -1.000000000000000       0.000000000000000
         -0.000000000000000       0.000000000000000      -1.000000000000000
          0.000000000000000       0.000000000000000      -0.000000000000000
# Symm. op. 3     2_1
         -1.000000000000000       0.000000000000000       0.000000000000000
          0.000000000000000       1.000000000000000       0.000000000000000
         -0.000000000000000       0.000000000000000      -1.000000000000000
          0.000000000000000       0.500000000000000       0.500000000000000
# Symm. op. 4       c
          1.000000000000000       0.000000000000000       0.000000000000000
          0.000000000000000      -1.000000000000000       0.000000000000000
          0.000000000000000       0.000000000000000       1.000000000000000
          0.000000000000000       0.500000000000000       0.500000000000000
%ENDBLOCK symmetry_ops

kpoint_mp_grid :    8  13  11



%BLOCK EXTERNAL_PRESSURE
GPA
070  0   0
    070  0
        070
%ENDBLOCK EXTERNAL_PRESSURE
