# CELL file written 03:08:17 (GMT+1.0) 22nd August 2020 from run P21c

%BLOCK lattice_cart
   ANG
       10.5123069152230        0.00000000000000       0.199269312103743E-02
       0.00000000000000        2.18419721233225        0.00000000000000    
      -7.00966558326687        0.00000000000000        3.76423865897794    
%ENDBLOCK lattice_cart

%BLOCK cell_constraints
      1   2   3
      0   5   0
%ENDBLOCK cell_constraints

%BLOCK positions_frac
   H              0.839269291809347       0.638240736455278       0.109456811415334
   H              0.160730708190654       0.361759263544722       0.890543188584665
   H              0.839269291809347       0.861759263544722       0.609456811415334
   H              0.160730708190654       0.138240736455277       0.390543188584668
   H              0.880095751807723       0.407786380080130       0.220034690949710
   H              0.119904248192276       0.592213619919870       0.779965309050290
   H              0.880095751807723       0.092213619919870       0.720034690949710
   H              0.119904248192276       0.907786380080130       0.279965309050290
   H              0.856808143192113       0.109794666042380       0.412134725192255
   H              0.143191856807886       0.890205333957620       0.587865274807745
   H              0.856808143192113       0.390205333957620       0.912134725192255
   H              0.143191856807886       0.609794666042380       0.087865274807745
   H              0.752605753031239       0.911680404110622       0.252673129736323
   H              0.247394246968761       0.088319595889379       0.747326870263677
   H              0.752605753031239       0.588319595889378       0.752673129736323
   H              0.247394246968761       0.411680404110621       0.247326870263678
   H              0.571469669891967       0.399274631208576       0.191611515374765
   H              0.428530330108032       0.600725368791424       0.808388484625235
   H              0.571469669891967       0.100725368791424       0.691611515374765
   H              0.428530330108032       0.899274631208576       0.308388484625235
   H              0.482559070303447       0.590910353282045       0.140840155037236
   H              0.517440929696553       0.409089646717954       0.859159844962764
   H              0.482559070303447       0.909089646717954       0.640840155037236
   H              0.517440929696553       0.090910353282046       0.359159844962763
%ENDBLOCK positions_frac

FIX_COM : true

%BLOCK species_gamma
   radsectesla
   H          267522128.0    
%ENDBLOCK species_gamma

%BLOCK species_pot
   H       0|0.7|2|6|8|10L(qc=10)
%ENDBLOCK species_pot

SYMMETRY_TOL :     0.001000

%BLOCK symmetry_ops
# Symm. op. 1       E
          1.000000000000000       0.000000000000000       0.000000000000000
          0.000000000000000       1.000000000000000       0.000000000000000
          0.000000000000000       0.000000000000000       1.000000000000000
          0.000000000000000       0.000000000000000       0.000000000000000
# Symm. op. 2       I
         -1.000000000000000       0.000000000000000       0.000000000000000
          0.000000000000000      -1.000000000000000       0.000000000000000
         -0.000000000000000       0.000000000000000      -1.000000000000000
          0.000000000000000       0.000000000000000      -0.000000000000000
# Symm. op. 3     2_1
         -1.000000000000000       0.000000000000000       0.000000000000000
          0.000000000000000       1.000000000000000       0.000000000000000
         -0.000000000000000       0.000000000000000      -1.000000000000000
          0.000000000000000       0.500000000000000       0.500000000000000
# Symm. op. 4       c
          1.000000000000000       0.000000000000000       0.000000000000000
          0.000000000000000      -1.000000000000000       0.000000000000000
          0.000000000000000       0.000000000000000       1.000000000000000
          0.000000000000000       0.500000000000000       0.500000000000000
%ENDBLOCK symmetry_ops

kpoint_mp_grid :    8  13  11



%BLOCK EXTERNAL_PRESSURE
GPA
020  0   0
    020  0
        020
%ENDBLOCK EXTERNAL_PRESSURE
