# CELL file written 21:51:15 (GMT+1.0) 21st August 2020 from run P21c

%BLOCK lattice_cart
   ANG
       9.85270881487176        0.00000000000000       0.138509339561044E-02
       0.00000000000000        2.05912322773186        0.00000000000000    
      -6.57001852980047        0.00000000000000        3.55032587682917    
%ENDBLOCK lattice_cart

%BLOCK cell_constraints
      1   2   3
      0   5   0
%ENDBLOCK cell_constraints

%BLOCK positions_frac
   H              0.835574029970257       0.652874412824139       0.103678190696605
   H              0.164425970029744       0.347125587175860       0.896321809303394
   H              0.835574029970257       0.847125587175861       0.603678190696605
   H              0.164425970029744       0.152874412824139       0.396321809303396
   H              0.882545757697209       0.406306693737404       0.223229827360017
   H              0.117454242302790       0.593693306262596       0.776770172639983
   H              0.882545757697209       0.093693306262596       0.723229827360017
   H              0.117454242302790       0.906306693737404       0.276770172639983
   H              0.859882769309933       0.118794683694899       0.416268522347295
   H              0.140117230690065       0.881205316305101       0.583731477652705
   H              0.859882769309933       0.381205316305101       0.916268522347295
   H              0.140117230690065       0.618794683694899       0.083731477652705
   H              0.749292737962578       0.908966504112448       0.247917346190299
   H              0.250707262037422       0.091033495887553       0.752082653809702
   H              0.749292737962578       0.591033495887552       0.747917346190298
   H              0.250707262037422       0.408966504112447       0.252082653809702
   H              0.573807819948930       0.392445493171277       0.193388953347461
   H              0.426192180051069       0.607554506828723       0.806611046652539
   H              0.573807819948930       0.107554506828723       0.693388953347461
   H              0.426192180051069       0.892445493171277       0.306611046652539
   H              0.478882864563428       0.598861815278544       0.137443051558647
   H              0.521117135436572       0.401138184721455       0.862556948441354
   H              0.478882864563428       0.901138184721455       0.637443051558646
   H              0.521117135436572       0.098861815278545       0.362556948441353
%ENDBLOCK positions_frac

FIX_COM : true

%BLOCK species_gamma
   radsectesla
   H          267522128.0    
%ENDBLOCK species_gamma

%BLOCK species_pot
   H       0|0.7|2|6|8|10L(qc=10)
%ENDBLOCK species_pot

SYMMETRY_TOL :     0.001000

%BLOCK symmetry_ops
# Symm. op. 1       E
          1.000000000000000       0.000000000000000       0.000000000000000
          0.000000000000000       1.000000000000000       0.000000000000000
          0.000000000000000       0.000000000000000       1.000000000000000
          0.000000000000000       0.000000000000000       0.000000000000000
# Symm. op. 2       I
         -1.000000000000000       0.000000000000000       0.000000000000000
          0.000000000000000      -1.000000000000000       0.000000000000000
         -0.000000000000000       0.000000000000000      -1.000000000000000
          0.000000000000000       0.000000000000000      -0.000000000000000
# Symm. op. 3     2_1
         -1.000000000000000       0.000000000000000       0.000000000000000
          0.000000000000000       1.000000000000000       0.000000000000000
         -0.000000000000000       0.000000000000000      -1.000000000000000
          0.000000000000000       0.500000000000000       0.500000000000000
# Symm. op. 4       c
          1.000000000000000       0.000000000000000       0.000000000000000
          0.000000000000000      -1.000000000000000       0.000000000000000
          0.000000000000000       0.000000000000000       1.000000000000000
          0.000000000000000       0.500000000000000       0.500000000000000
%ENDBLOCK symmetry_ops

kpoint_mp_grid :    8  13  11



%BLOCK EXTERNAL_PRESSURE
GPA
040  0   0
    040  0
        040
%ENDBLOCK EXTERNAL_PRESSURE
