# CELL file written 02:16:22 (GMT+1.0) 29th August 2020 from run Cmca-12

%BLOCK lattice_cart
   ANG
       2.69254039812536      -0.648373922450338E-11   0.294729928379160E-11
     -0.120358472338523E-10    4.99181103728336      -0.414720213340828E-08
      0.327294878919768E-11  -0.252632845571175E-08    3.00323200844705    
%ENDBLOCK lattice_cart

%BLOCK positions_frac
   H              0.000000000029786       0.001377175597000       0.127786387510801
   H             -0.000000000021832       0.132673167486996       0.455063471101098
   H              0.000000000001344       0.260438826466572       0.321100555582453
   H              0.499999999979755       0.260438841115698       0.178899485084342
   H              0.500000000015256       0.132673175670592       0.044936572884868
   H              0.500000000024314       0.001377173161636       0.372213611026557
   H              0.499999999978522       0.239561151665493       0.678899479180985
   H              0.500000000008384       0.367326822439962       0.544936558294649
   H              0.499999999989010       0.498622831546349       0.872213610118115
   H              0.499999999981625       0.739561156134621       0.821100521843436
   H              0.500000000007773       0.867326821968022       0.955063431762848
   H              0.499999999978226       0.998622832308515       0.627786384957594
   H              0.500000000005801       0.760438841164491       0.321100517657003
   H              0.500000000008516       0.632673175455329       0.455063436040736
   H              0.500000000020532       0.501377172157046       0.127786390355023
   H             -0.000000000029698       0.760438831974197       0.178899454787330
   H              0.000000000051025       0.632673173072842       0.044936543684931
   H             -0.000000000040013       0.501377173021449       0.372213601899145
   H             -0.000000000023138       0.739561166864615       0.678899447237014
   H              0.000000000008816       0.867326827135369       0.544936531455326
   H             -0.000000000010786       0.998622831635977       0.872213604178987
   H             -0.000000000018017       0.239561172923980       0.821100549837206
   H              0.000000000008071       0.367326832692848       0.955063464895925
   H              0.000000000046735       0.498622826340404       0.627786388623631
%ENDBLOCK positions_frac

FIX_COM : true

%BLOCK species_mass
   AMU
   H          1.007825032    
%ENDBLOCK species_mass

%BLOCK species_gamma
   radsectesla
   H          267522128.0    
%ENDBLOCK species_gamma

%BLOCK species_pot
   H       1|0.6|13|15|17|10(qc=8)
%ENDBLOCK species_pot

SYMMETRY_TOL :     0.001000

%BLOCK symmetry_ops
# Symm. op. 1       E
          1.000000000000000       0.000000000000000       0.000000000000000
          0.000000000000000       1.000000000000000       0.000000000000000
          0.000000000000000       0.000000000000000       1.000000000000000
          0.000000000000000       0.000000000000000       0.000000000000000
%ENDBLOCK symmetry_ops

kpoint_mp_grid :   18  18  18

%BLOCK external_pressure
   GPA
       210.00000000      0.00000000      0.00000000
       210.00000000      0.00000000
       210.00000000
%ENDBLOCK external_pressure

