# CELL file written 21:38:54 (GMT+1.0) 28th August 2020 from run Cmca-12

%BLOCK lattice_cart
   ANG
       2.64255065455600       0.559564733961922E-11   0.273175358942923E-11
      0.103275513427898E-10    4.90202192410550      -0.186619214606813E-08
      0.304480591393378E-11  -0.113455029968082E-08    2.95147573701594    
%ENDBLOCK lattice_cart

%BLOCK positions_frac
   H              0.000000000010284       0.002165259965717       0.130339052965106
   H             -0.000000000014229       0.132356310007056       0.455095209910063
   H              0.000000000000596       0.262873270751661       0.319316699745081
   H              0.499999999983233       0.262873260356556       0.180683281497774
   H              0.500000000018016       0.132356311063863       0.044904780014171
   H              0.500000000011185       0.002165263252803       0.369660935816536
   H              0.499999999985742       0.237126740096220       0.680683279173557
   H              0.500000000012437       0.367643683849592       0.544904781757595
   H              0.500000000020464       0.497834738546785       0.869660934534531
   H              0.499999999967794       0.737126736987908       0.819316715282514
   H              0.500000000021563       0.867643689435622       0.955095217341573
   H              0.499999999991509       0.997834738983079       0.630339065791267
   H              0.499999999984369       0.762873264360050       0.319316717011285
   H              0.500000000019173       0.632356308951573       0.455095226657650
   H              0.499999999989598       0.502165261090488       0.130339062765118
   H             -0.000000000016931       0.762873264455469       0.180683290728224
   H              0.000000000007902       0.632356319793549       0.044904793518662
   H             -0.000000000003384       0.502165261032716       0.369660931673279
   H             -0.000000000011765       0.737126729936526       0.680683304263545
   H              0.000000000014341       0.867643687145537       0.544904795791399
   H             -0.000000000014742       0.997834740868888       0.869660940801195
   H              0.000000000007758       0.237126722911814       0.819316693878899
   H              0.000000000003372       0.367643693386104       0.955095220565731
   H              0.000000000011719       0.497834742770426       0.630339068515247
%ENDBLOCK positions_frac

FIX_COM : true

%BLOCK species_mass
   AMU
   H          1.007825032    
%ENDBLOCK species_mass

%BLOCK species_gamma
   radsectesla
   H          267522128.0    
%ENDBLOCK species_gamma

%BLOCK species_pot
   H       1|0.6|13|15|17|10(qc=8)
%ENDBLOCK species_pot

SYMMETRY_TOL :     0.001000

%BLOCK symmetry_ops
# Symm. op. 1       E
          1.000000000000000       0.000000000000000       0.000000000000000
          0.000000000000000       1.000000000000000       0.000000000000000
          0.000000000000000       0.000000000000000       1.000000000000000
          0.000000000000000       0.000000000000000       0.000000000000000
%ENDBLOCK symmetry_ops

kpoint_mp_grid :   18  18  18

%BLOCK external_pressure
   GPA
       240.00000000      0.00000000      0.00000000
       240.00000000      0.00000000
       240.00000000
%ENDBLOCK external_pressure

