# CELL file written 13:08:24 (GMT+1.0) 28th August 2020 from run Cmca-12

%BLOCK lattice_cart
   ANG
       2.55952586179183      -0.107508200437295E-10   0.350504747189522E-11
     -0.199802605498808E-10    4.75595526006300       0.338178289147239E-08
      0.395380850807101E-11   0.205151414581863E-08    2.86670736387120    
%ENDBLOCK lattice_cart

%BLOCK positions_frac
   H              0.000000000009333       0.003937997303290       0.134563304099471
   H             -0.000000000000389       0.131894184593498       0.455562796971814
   H              0.000000000002697       0.266973322876191       0.316714259668462
   H              0.499999999986022       0.266973322846542       0.183285740221893
   H              0.499999999981515       0.131894184695055       0.044437209214208
   H              0.499999999995710       0.003937997671209       0.365436688206434
   H              0.500000000030987       0.233026673628472       0.683285739482567
   H              0.499999999990467       0.368105808834480       0.544437202814495
   H              0.500000000063197       0.496062000888596       0.865436695584057
   H              0.499999999980072       0.733026677242356       0.816714260499818
   H              0.500000000004385       0.868105814831015       0.955562791395890
   H              0.499999999992677       0.996062002069498       0.634563311706449
   H              0.500000000001018       0.766973326900747       0.316714259791601
   H              0.499999999997562       0.631894190943452       0.455562796721642
   H              0.499999999989916       0.503937999894904       0.134563304070450
   H             -0.000000000003988       0.766973329529611       0.183285739146630
   H              0.000000000015275       0.631894187268120       0.044437202840172
   H             -0.000000000055487       0.503937999985409       0.365436692483539
   H             -0.000000000014125       0.733026676895078       0.683285740454079
   H             -0.000000000007137       0.868105815511639       0.544437202643673
   H              0.000000000007878       0.996062001850388       0.865436696938407
   H              0.000000000008538       0.233026671192500       0.816714261417108
   H              0.000000000004756       0.368105812187492       0.955562795913045
   H              0.000000000019122       0.496062000360458       0.634563307714098
%ENDBLOCK positions_frac

FIX_COM : true

%BLOCK species_mass
   AMU
   H          1.007825032    
%ENDBLOCK species_mass

%BLOCK species_gamma
   radsectesla
   H          267522128.0    
%ENDBLOCK species_gamma

%BLOCK species_pot
   H       1|0.6|13|15|17|10(qc=8)
%ENDBLOCK species_pot

SYMMETRY_TOL :     0.001000

%BLOCK symmetry_ops
# Symm. op. 1       E
          1.000000000000000       0.000000000000000       0.000000000000000
          0.000000000000000       1.000000000000000       0.000000000000000
          0.000000000000000       0.000000000000000       1.000000000000000
          0.000000000000000       0.000000000000000       0.000000000000000
%ENDBLOCK symmetry_ops

kpoint_mp_grid :   18  18  18

%BLOCK external_pressure
   GPA
       300.00000000      0.00000000      0.00000000
       300.00000000      0.00000000
       300.00000000
%ENDBLOCK external_pressure

