# CELL file written 06:20:25 (GMT+1.0) 30th August 2020 from run Cmca-12

%BLOCK lattice_cart
   ANG
       3.02080610564910      -0.589046357428098E-11   0.294204297577051E-11
     -0.108212374615909E-10    5.61806899878983       0.177505344533254E-05
      0.337967074723743E-11   0.107095096699312E-05    3.34145297676279    
%ENDBLOCK lattice_cart

%BLOCK positions_frac
   H             -0.000000000002421       0.001669560168710       0.112688974474391
   H             -0.000000000003410       0.134786746198382       0.459702699667462
   H             -0.000000000005701       0.245354992425012       0.336006197522330
   H              0.499999999998790       0.245357493050990       0.163991462604794
   H              0.499999999996140       0.134785228731983       0.040305318985618
   H              0.499999999942917       0.001667456985971       0.387310896965104
   H              0.499999999999629       0.254643214156652       0.663996563691961
   H              0.499999999998291       0.365209660858568       0.540294732769961
   H              0.499999999998650       0.498325446352115       0.887311276062232
   H              0.500000000028817       0.754642512868308       0.836008543273782
   H              0.499999999985896       0.865214774589977       0.959694684138977
   H              0.500000000035977       0.998332546063811       0.612689098412121
   H              0.500000000027365       0.745356774914080       0.336003441145911
   H              0.499999999992139       0.634790339312466       0.459705260698796
   H              0.499999999996980       0.501674557002267       0.112688720141380
   H             -0.000000000013290       0.745358234931516       0.163990635099759
   H              0.000000000020577       0.634787636838971       0.040299912213171
   H              0.000000000023843       0.501672481782705       0.387311250160358
   H              0.000000000034503       0.754645015304658       0.663993798514688
   H             -0.000000000019792       0.865213257183066       0.540297301615819
   H             -0.000000000004072       0.998330434701580       0.887311038260069
   H             -0.000000000024710       0.254641760539691       0.836009365312380
   H              0.000000000020431       0.365212358858446       0.959700076256510
   H             -0.000000000027546       0.498327516180080       0.612688752012433
%ENDBLOCK positions_frac

FIX_COM : true

%BLOCK species_mass
   AMU
   H          1.007825032    
%ENDBLOCK species_mass

%BLOCK species_gamma
   radsectesla
   H          267522128.0    
%ENDBLOCK species_gamma

%BLOCK species_pot
   H       1|0.6|13|15|17|10(qc=8)
%ENDBLOCK species_pot

SYMMETRY_TOL :     0.001000

%BLOCK symmetry_ops
# Symm. op. 1       E
          1.000000000000000       0.000000000000000       0.000000000000000
          0.000000000000000       1.000000000000000       0.000000000000000
          0.000000000000000       0.000000000000000       1.000000000000000
          0.000000000000000       0.000000000000000       0.000000000000000
%ENDBLOCK symmetry_ops

kpoint_mp_grid :   18  18  18

%BLOCK external_pressure
   GPA
        90.00000000      0.00000000      0.00000000
        90.00000000      0.00000000
        90.00000000
%ENDBLOCK external_pressure

