# CELL file written 20:29:00 (GMT+1.0) 29th August 2020 from run Cmca-12

%BLOCK lattice_cart
   ANG
       2.90632301384766       0.111615532371334E-11   0.485241319712288E-11
      0.216185898918775E-11    5.39256024844887      -0.111154194037128E-07
      0.544414910983477E-11  -0.487098285116545E-08    3.22617259227335    
%ENDBLOCK lattice_cart

%BLOCK positions_frac
   H             -0.000000000029770       0.000444405130853       0.117485192890815
   H              0.000000000067023       0.134149523612238       0.457054061310910
   H             -0.000000000054064       0.250439302617256       0.330157512539571
   H              0.500000000026001       0.250438776400386       0.169844869800519
   H              0.499999999986072       0.134150300372125       0.042945151689234
   H              0.500000000017050       0.000444209580007       0.382514375496378
   H              0.499999999986482       0.249560680497361       0.669842475486393
   H              0.500000000026071       0.365850489671339       0.542946002156686
   H              0.499999999946138       0.499555578735667       0.882514836482788
   H              0.499999999972017       0.749561194821204       0.830155142343184
   H              0.500000000041630       0.865849713293416       0.957054804898783
   H              0.499999999961735       0.999555770895286       0.617485583913008
   H              0.499999999988072       0.750439316342320       0.330157490310625
   H              0.499999999998136       0.634149526935651       0.457054047499123
   H              0.500000000053453       0.500444401112469       0.117485230036136
   H              0.000000000030726       0.750438789347981       0.169844868722130
   H             -0.000000000027970       0.634150296392473       0.042945142706555
   H              0.000000000006192       0.500444216560479       0.382514382848504
   H              0.000000000001663       0.749560682717084       0.669842474228816
   H             -0.000000000041530       0.865850495090253       0.542945949417810
   H              0.000000000034220       0.999555595554682       0.882514808870408
   H             -0.000000000040833       0.249561223564212       0.830155166553789
   H              0.000000000039014       0.365849724096751       0.957054841772235
   H              0.000000000012476       0.499555786658512       0.617485588025607
%ENDBLOCK positions_frac

FIX_COM : true

%BLOCK species_mass
   AMU
   H          1.007825032    
%ENDBLOCK species_mass

%BLOCK species_gamma
   radsectesla
   H          267522128.0    
%ENDBLOCK species_gamma

%BLOCK species_pot
   H       1|0.6|13|15|17|10(qc=8)
%ENDBLOCK species_pot

SYMMETRY_TOL :     0.001000

%BLOCK symmetry_ops
# Symm. op. 1       E
          1.000000000000000       0.000000000000000       0.000000000000000
          0.000000000000000       1.000000000000000       0.000000000000000
          0.000000000000000       0.000000000000000       1.000000000000000
          0.000000000000000       0.000000000000000       0.000000000000000
%ENDBLOCK symmetry_ops

kpoint_mp_grid :   18  18  18

%BLOCK external_pressure
   GPA
       120.00000000      0.00000000      0.00000000
       120.00000000      0.00000000
       120.00000000
%ENDBLOCK external_pressure

