# CELL file written 07:16:15 (GMT+1.0) 29th August 2020 from run Cmca-12

%BLOCK lattice_cart
   ANG
       2.75062680040567      -0.174885403222017E-11   0.657110177817792E-11
     -0.328938279692069E-11    5.09800095725661      -0.167789196216724E-07
      0.732732933942283E-11  -0.782136171069516E-08    3.06383110132034    
%ENDBLOCK lattice_cart

%BLOCK positions_frac
   H              0.000000000022590       0.000729405334271       0.124858375497178
   H              0.000000000031892       0.133068131332334       0.455262090770707
   H             -0.000000000041778       0.257650851365603       0.323343516358028
   H              0.499999999953850       0.257650859313598       0.176656517052263
   H              0.500000000032215       0.133068147363368       0.044737899270357
   H              0.500000000041886       0.000729431004081       0.375141633992885
   H              0.499999999987222       0.242349141237725       0.676656506826640
   H              0.499999999996929       0.366931863907588       0.544737927286455
   H              0.499999999999075       0.499270596501674       0.875141616700400
   H              0.500000000009917       0.742349154901778       0.823343483746951
   H              0.499999999988194       0.866931856122854       0.955262107658275
   H              0.499999999986587       0.999270570412775       0.624858370892782
   H              0.499999999988414       0.757650862329323       0.323343499575598
   H              0.500000000007757       0.633068137139078       0.455262064100704
   H              0.500000000006248       0.500729407816652       0.124858368093920
   H              0.000000000016519       0.757650839369036       0.176656496282069
   H             -0.000000000019104       0.633068142728135       0.044737875581313
   H              0.000000000005000       0.500729432453667       0.375141627388533
   H              0.000000000015368       0.742349139902804       0.676656486963584
   H             -0.000000000020454       0.866931867237254       0.544737915412764
   H             -0.000000000012578       0.999270589707964       0.875141636962283
   H             -0.000000000001262       0.242349150607500       0.823343500651626
   H              0.000000000000822       0.366931858215484       0.955262122162549
   H              0.000000000004697       0.499270563695456       0.624858360772142
%ENDBLOCK positions_frac

FIX_COM : true

%BLOCK species_mass
   AMU
   H          1.007825032    
%ENDBLOCK species_mass

%BLOCK species_gamma
   radsectesla
   H          267522128.0    
%ENDBLOCK species_gamma

%BLOCK species_pot
   H       1|0.6|13|15|17|10(qc=8)
%ENDBLOCK species_pot

SYMMETRY_TOL :     0.001000

%BLOCK symmetry_ops
# Symm. op. 1       E
          1.000000000000000       0.000000000000000       0.000000000000000
          0.000000000000000       1.000000000000000       0.000000000000000
          0.000000000000000       0.000000000000000       1.000000000000000
          0.000000000000000       0.000000000000000       0.000000000000000
%ENDBLOCK symmetry_ops

kpoint_mp_grid :   18  18  18

%BLOCK external_pressure
   GPA
       180.00000000      0.00000000      0.00000000
       180.00000000      0.00000000
       180.00000000
%ENDBLOCK external_pressure

