# CELL file written 13:50:59 (GMT+1.0) 29th August 2020 from run Cmca-12

%BLOCK lattice_cart
   ANG
       2.82001263691444      -0.178524097444460E-10   0.162970232234780E-11
     -0.330843139544425E-10    5.22751135171578      -0.716726547901893E-06
      0.184974724274038E-11  -0.428315667647300E-06    3.13645817281471    
%ENDBLOCK lattice_cart

%BLOCK positions_frac
   H              0.000000000025688       0.000337332498714       0.121466483178551
   H              0.000000000007636       0.133557198813606       0.455831135160848
   H              0.000000000000875       0.254387161073853       0.326240124847806
   H              0.499999999968561       0.254386112620898       0.173763234768851
   H              0.500000000037775       0.133558512141963       0.044166071227934
   H              0.500000000025683       0.000337819184208       0.378533153951508
   H              0.500000000015467       0.245612827239127       0.673759872322683
   H              0.499999999986985       0.366442810179103       0.544168845459949
   H              0.499999999993889       0.499662664333293       0.878533530879320
   H              0.500000000029311       0.745613881824496       0.826236766770845
   H              0.499999999965282       0.866441490156769       0.955833914309142
   H              0.499999999968213       0.999662173928923       0.621466831336846
   H              0.499999999993574       0.754387162713819       0.326240128323305
   H              0.499999999997142       0.633557195646370       0.455831166567304
   H              0.500000000020233       0.500337329930302       0.121466485636908
   H             -0.000000000022461       0.754386127834254       0.173763252295668
   H              0.000000000012602       0.633558518344470       0.044166091714450
   H              0.000000000034956       0.500337822744038       0.378533168022367
   H              0.000000000030397       0.745612839508644       0.673759873073505
   H             -0.000000000046058       0.866442801271146       0.544168866942948
   H             -0.000000000021220       0.999662671116365       0.878533507094944
   H              0.000000000051233       0.245613876513292       0.826236750119112
   H             -0.000000000042085       0.366441491274024       0.955833916462626
   H             -0.000000000033672       0.499662179108327       0.621466829532588
%ENDBLOCK positions_frac

FIX_COM : true

%BLOCK species_mass
   AMU
   H          1.007825032    
%ENDBLOCK species_mass

%BLOCK species_gamma
   radsectesla
   H          267522128.0    
%ENDBLOCK species_gamma

%BLOCK species_pot
   H       1|0.6|13|15|17|10(qc=8)
%ENDBLOCK species_pot

SYMMETRY_TOL :     0.001000

%BLOCK symmetry_ops
# Symm. op. 1       E
          1.000000000000000       0.000000000000000       0.000000000000000
          0.000000000000000       1.000000000000000       0.000000000000000
          0.000000000000000       0.000000000000000       1.000000000000000
          0.000000000000000       0.000000000000000       0.000000000000000
%ENDBLOCK symmetry_ops

kpoint_mp_grid :   18  18  18

%BLOCK external_pressure
   GPA
       150.00000000      0.00000000      0.00000000
       150.00000000      0.00000000
       150.00000000
%ENDBLOCK external_pressure

