# CELL file written 17:30:01 (GMT+1.0) 28th August 2020 from run Cmca-12

%BLOCK lattice_cart
   ANG
       2.59865627940155      -0.701893658114914E-11   0.114841939948281E-11
     -0.130884400108921E-10    4.82434443862237       0.471485113090802E-09
      0.129997180689746E-11   0.298166991648586E-09    2.90645349993661    
%ENDBLOCK lattice_cart

%BLOCK positions_frac
   H             -0.000000000031687       0.003030728879144       0.132581310394650
   H              0.000000000003301       0.132101211033695       0.455278159825659
   H              0.000000000015253       0.265033213821304       0.317879030713073
   H              0.500000000024177       0.265033221701811       0.182120987136924
   H              0.499999999980707       0.132101214253102       0.044721863428417
   H              0.499999999984751       0.003030723500760       0.367418687697217
   H              0.499999999985201       0.234966779876930       0.682120988510093
   H              0.500000000022601       0.367898782204263       0.544721862786549
   H              0.499999999997110       0.496969272092700       0.867418685348580
   H              0.500000000020366       0.734966778043583       0.817879011775465
   H              0.499999999976692       0.867898783615743       0.955278132917648
   H              0.500000000027880       0.996969277281711       0.632581314043884
   H              0.500000000027890       0.765033220897390       0.317879011387296
   H              0.499999999960276       0.632101218253439       0.455278138698231
   H              0.499999999995602       0.503030727085362       0.132581318329027
   H              0.000000000001426       0.765033217697392       0.182120969268406
   H              0.000000000000990       0.632101212485394       0.044721843280691
   H             -0.000000000015025       0.503030724690052       0.367418683212899
   H             -0.000000000008697       0.734966784908199       0.682120971371502
   H              0.000000000021431       0.867898786511211       0.544721843575592
   H              0.000000000004087       0.996969272490144       0.867418685863135
   H              0.000000000007345       0.234966785766352       0.817879032013500
   H             -0.000000000009953       0.367898788467700       0.955278155547474
   H              0.000000000008278       0.496969274442621       0.632581312874089
%ENDBLOCK positions_frac

FIX_COM : true

%BLOCK species_mass
   AMU
   H          1.007825032    
%ENDBLOCK species_mass

%BLOCK species_gamma
   radsectesla
   H          267522128.0    
%ENDBLOCK species_gamma

%BLOCK species_pot
   H       1|0.6|13|15|17|10(qc=8)
%ENDBLOCK species_pot

SYMMETRY_TOL :     0.001000

%BLOCK symmetry_ops
# Symm. op. 1       E
          1.000000000000000       0.000000000000000       0.000000000000000
          0.000000000000000       1.000000000000000       0.000000000000000
          0.000000000000000       0.000000000000000       1.000000000000000
          0.000000000000000       0.000000000000000       0.000000000000000
%ENDBLOCK symmetry_ops

kpoint_mp_grid :   18  18  18

%BLOCK external_pressure
   GPA
       270.00000000      0.00000000      0.00000000
       270.00000000      0.00000000
       270.00000000
%ENDBLOCK external_pressure

