# CELL file written 07:22:00 (GMT+1.0) 31st July 2020 from run Pbcn

%BLOCK lattice_cart
   ANG
       3.11342707667423       0.111738713045719E-33    0.00000000000000    
      0.194368253452742E-33    5.41225616005306        0.00000000000000    
       0.00000000000000        0.00000000000000        5.51409287719546    
%ENDBLOCK lattice_cart

%BLOCK cell_constraints
      1   2   3
      0   0   0
%ENDBLOCK cell_constraints

%BLOCK positions_frac
   H              0.402843382309075       0.118409484914509       0.011660068336934
   H              0.573968744188782       0.207192063297983       0.036697206988591
   H              0.569620063733736       0.553502139232337       0.004126514408479
   H              0.125249645800858       0.170853168544534       0.247815752589855
   H              0.305992842234318       0.353453501708650       0.241680017930079
   H              0.180838192268220       0.477942579913335       0.250723472968552
   H              0.180838192268220       0.522057420086665       0.750723472968552
   H              0.305992842234318       0.646546498291350       0.741680017930079
   H              0.125249645800858       0.829146831455466       0.747815752589855
   H              0.569620063733736       0.446497860767663       0.504126514408478
   H              0.573968744188782       0.792807936702017       0.536697206988591
   H              0.402843382309075       0.881590515085491       0.511660068336934
   H              0.319161807731780       0.977942579913335       0.250723472968552
   H              0.194007157765682       0.853453501708649       0.241680017930079
   H              0.374750354199142       0.670853168544534       0.247815752589855
   H             -0.069620063733736       0.053502139232337       0.004126514408479
   H             -0.073968744188781       0.707192063297983       0.036697206988591
   H              0.097156617690926       0.618409484914509       0.011660068336934
   H              0.680838192268220       0.977942579913335       0.249276527031448
   H              0.805992842234317       0.853453501708649       0.258319982069922
   H              0.625249645800858       0.670853168544534       0.252184247410146
   H              1.069620063733733       0.053502139232337       0.495873485591523
   H              1.073968744188781       0.707192063297983       0.463302793011408
   H              0.902843382309075       0.618409484914509       0.488339931663066
   H              0.819161807731781       0.522057420086665       0.749276527031448
   H              0.694007157765683       0.646546498291350       0.758319982069921
   H              0.874750354199142       0.829146831455466       0.752184247410145
   H              0.430379936266264       0.446497860767663      -0.004126514408479
   H              0.426031255811219       0.792807936702017       0.963302793011409
   H              0.597156617690925       0.881590515085491       0.988339931663066
   H              0.819161807731781       0.477942579913335       0.249276527031448
   H              0.694007157765683       0.353453501708650       0.258319982069922
   H              0.874750354199142       0.170853168544534       0.252184247410146
   H              0.430379936266264       0.553502139232337       0.495873485591523
   H              0.426031255811219       0.207192063297983       0.463302793011408
   H              0.597156617690925       0.118409484914509       0.488339931663066
   H              0.680838192268220       0.022057420086665       0.749276527031448
   H              0.805992842234317       0.146546498291350       0.758319982069921
   H              0.625249645800858       0.329146831455466       0.752184247410145
   H              0.069620063733736      -0.053502139232337      -0.004126514408479
   H              1.073968744188781       0.292807936702017       0.963302793011409
   H              0.902843382309075       0.381590515085492       0.988339931663066
   H              0.319161807731780       0.022057420086665       0.750723472968552
   H              0.194007157765682       0.146546498291350       0.741680017930079
   H              0.374750354199142       0.329146831455466       0.747815752589855
   H              0.930379936266264      -0.053502139232337       0.504126514408478
   H             -0.073968744188781       0.292807936702017       0.536697206988591
   H              0.097156617690926       0.381590515085492       0.511660068336934
%ENDBLOCK positions_frac

FIX_COM : true

%BLOCK species_mass
   AMU
   H          2.014101778    
%ENDBLOCK species_mass

%BLOCK species_gamma
   radsectesla
   H          267522128.0    
%ENDBLOCK species_gamma

%BLOCK species_pot
   H       1|0.6|13|15|17|10(qc=8)
%ENDBLOCK species_pot

SYMMETRY_TOL :     0.001000

%BLOCK symmetry_ops
# Symm. op. 1       E
          1.000000000000000       0.000000000000000       0.000000000000000
          0.000000000000000       1.000000000000000       0.000000000000000
          0.000000000000000       0.000000000000000       1.000000000000000
          0.000000000000000       0.000000000000000       0.000000000000000
# Symm. op. 2       I
         -1.000000000000000       0.000000000000000       0.000000000000000
          0.000000000000000      -1.000000000000000       0.000000000000000
          0.000000000000000       0.000000000000000      -1.000000000000000
         -0.000000000000000      -0.000000000000000       0.000000000000000
# Symm. op. 3     2_1
         -1.000000000000000       0.000000000000000       0.000000000000000
          0.000000000000000      -1.000000000000000       0.000000000000000
          0.000000000000000       0.000000000000000       1.000000000000000
          0.500000000000000       0.500000000000000       0.500000000000000
# Symm. op. 4       n
          1.000000000000000       0.000000000000000       0.000000000000000
          0.000000000000000       1.000000000000000       0.000000000000000
          0.000000000000000       0.000000000000000      -1.000000000000000
          0.500000000000000       0.500000000000000       0.500000000000000
# Symm. op. 5     2_1
          1.000000000000000       0.000000000000000       0.000000000000000
          0.000000000000000      -1.000000000000000       0.000000000000000
          0.000000000000000       0.000000000000000      -1.000000000000000
          0.500000000000000       0.500000000000000       0.000000000000000
# Symm. op. 6       b
         -1.000000000000000       0.000000000000000       0.000000000000000
          0.000000000000000       1.000000000000000       0.000000000000000
          0.000000000000000       0.000000000000000       1.000000000000000
          0.500000000000000       0.500000000000000       0.000000000000000
# Symm. op. 7       2
         -1.000000000000000       0.000000000000000       0.000000000000000
          0.000000000000000       1.000000000000000       0.000000000000000
          0.000000000000000       0.000000000000000      -1.000000000000000
          0.000000000000000       0.000000000000000       0.500000000000000
# Symm. op. 8       c
          1.000000000000000       0.000000000000000       0.000000000000000
          0.000000000000000      -1.000000000000000       0.000000000000000
          0.000000000000000       0.000000000000000       1.000000000000000
          0.000000000000000      -0.000000000000000       0.500000000000000
%ENDBLOCK symmetry_ops

kpoint_mp_grid :    5   5   5

phonon_kpoint_mp_grid :    8   6   4



%BLOCK EXTERNAL_PRESSURE
GPA
120  0   0
    120  0
        120
%ENDBLOCK EXTERNAL_PRESSURE
