# CELL file written 00:14:38 (GMT+1.0) 31st July 2020 from run Pbcn

%BLOCK lattice_cart
   ANG
       2.91336797390190       0.139556154079222E-34    0.00000000000000    
      0.242863823404082E-34    5.06799175283713        0.00000000000000    
       0.00000000000000        0.00000000000000        5.20216956263780    
%ENDBLOCK lattice_cart

%BLOCK cell_constraints
      1   2   3
      0   0   0
%ENDBLOCK cell_constraints

%BLOCK positions_frac
   H              0.403539923736254       0.113936231804474       0.010335637336832
   H              0.579785353994953       0.213391485196277       0.024280560895653
   H              0.576561108921694       0.555561850194589       0.004892197278229
   H              0.138759667018644       0.172077412586579       0.248698063206832
   H              0.312152170925436       0.345939686578918       0.244081410339777
   H              0.172846688219457       0.483923087397217       0.250248314189770
   H              0.172846688219457       0.516076912602783       0.750248314189770
   H              0.312152170925436       0.654060313421082       0.744081410339777
   H              0.138759667018644       0.827922587413420       0.748698063206832
   H              0.576561108921694       0.444438149805410       0.504892197278229
   H              0.579785353994953       0.786608514803724       0.524280560895653
   H              0.403539923736254       0.886063768195525       0.510335637336832
   H              0.327153311780543       0.983923087397217       0.250248314189770
   H              0.187847829074564       0.845939686578917       0.244081410339777
   H              0.361240332981356       0.672077412586580       0.248698063206832
   H             -0.076561108921694       0.055561850194590       0.004892197278229
   H             -0.079785353994952       0.713391485196276       0.024280560895653
   H              0.096460076263747       0.613936231804475       0.010335637336832
   H              0.672846688219457       0.983923087397217       0.249751685810230
   H              0.812152170925436       0.845939686578917       0.255918589660224
   H              0.638759667018644       0.672077412586580       0.251301936793169
   H              1.076561108921692       0.055561850194590       0.495107802721772
   H              1.079785353994952       0.713391485196276       0.475719439104346
   H              0.903539923736254       0.613936231804475       0.489664362663168
   H              0.827153311780544       0.516076912602783       0.749751685810230
   H              0.687847829074564       0.654060313421082       0.755918589660223
   H              0.861240332981356       0.827922587413420       0.751301936793168
   H              0.423438891078306       0.444438149805410      -0.004892197278229
   H              0.420214646005048       0.786608514803724       0.975719439104347
   H              0.596460076263746       0.886063768195525       0.989664362663168
   H              0.827153311780544       0.483923087397217       0.249751685810230
   H              0.687847829074564       0.345939686578918       0.255918589660224
   H              0.861240332981356       0.172077412586579       0.251301936793169
   H              0.423438891078306       0.555561850194589       0.495107802721772
   H              0.420214646005048       0.213391485196277       0.475719439104346
   H              0.596460076263746       0.113936231804474       0.489664362663168
   H              0.672846688219457       0.016076912602783       0.749751685810230
   H              0.812152170925436       0.154060313421082       0.755918589660223
   H              0.638759667018644       0.327922587413421       0.751301936793168
   H              0.076561108921694      -0.055561850194590      -0.004892197278229
   H              1.079785353994952       0.286608514803723       0.975719439104347
   H              0.903539923736254       0.386063768195527       0.989664362663168
   H              0.327153311780543       0.016076912602783       0.750248314189770
   H              0.187847829074564       0.154060313421082       0.744081410339777
   H              0.361240332981356       0.327922587413421       0.748698063206832
   H              0.923438891078306      -0.055561850194590       0.504892197278229
   H             -0.079785353994952       0.286608514803723       0.524280560895653
   H              0.096460076263747       0.386063768195527       0.510335637336832
%ENDBLOCK positions_frac

FIX_COM : true

%BLOCK species_mass
   AMU
   H          2.014101778    
%ENDBLOCK species_mass

%BLOCK species_gamma
   radsectesla
   H          267522128.0    
%ENDBLOCK species_gamma

%BLOCK species_pot
   H       1|0.6|13|15|17|10(qc=8)
%ENDBLOCK species_pot

SYMMETRY_TOL :     0.001000

%BLOCK symmetry_ops
# Symm. op. 1       E
          1.000000000000000       0.000000000000000       0.000000000000000
          0.000000000000000       1.000000000000000       0.000000000000000
          0.000000000000000       0.000000000000000       1.000000000000000
          0.000000000000000       0.000000000000000       0.000000000000000
# Symm. op. 2       I
         -1.000000000000000       0.000000000000000       0.000000000000000
          0.000000000000000      -1.000000000000000       0.000000000000000
          0.000000000000000       0.000000000000000      -1.000000000000000
         -0.000000000000000      -0.000000000000000       0.000000000000000
# Symm. op. 3     2_1
         -1.000000000000000       0.000000000000000       0.000000000000000
          0.000000000000000      -1.000000000000000       0.000000000000000
          0.000000000000000       0.000000000000000       1.000000000000000
          0.500000000000000       0.500000000000000       0.500000000000000
# Symm. op. 4       n
          1.000000000000000       0.000000000000000       0.000000000000000
          0.000000000000000       1.000000000000000       0.000000000000000
          0.000000000000000       0.000000000000000      -1.000000000000000
          0.500000000000000       0.500000000000000       0.500000000000000
# Symm. op. 5     2_1
          1.000000000000000       0.000000000000000       0.000000000000000
          0.000000000000000      -1.000000000000000       0.000000000000000
          0.000000000000000       0.000000000000000      -1.000000000000000
          0.500000000000000       0.500000000000000       0.000000000000000
# Symm. op. 6       b
         -1.000000000000000       0.000000000000000       0.000000000000000
          0.000000000000000       1.000000000000000       0.000000000000000
          0.000000000000000       0.000000000000000       1.000000000000000
          0.500000000000000       0.500000000000000       0.000000000000000
# Symm. op. 7       2
         -1.000000000000000       0.000000000000000       0.000000000000000
          0.000000000000000       1.000000000000000       0.000000000000000
          0.000000000000000       0.000000000000000      -1.000000000000000
          0.000000000000000       0.000000000000000       0.500000000000000
# Symm. op. 8       c
          1.000000000000000       0.000000000000000       0.000000000000000
          0.000000000000000      -1.000000000000000       0.000000000000000
          0.000000000000000       0.000000000000000       1.000000000000000
          0.000000000000000      -0.000000000000000       0.500000000000000
%ENDBLOCK symmetry_ops

kpoint_mp_grid :    5   5   5

phonon_kpoint_mp_grid :    8   6   4



%BLOCK EXTERNAL_PRESSURE
GPA
210  0   0
    210  0
        210
%ENDBLOCK EXTERNAL_PRESSURE
