# CELL file written 19:03:55 (GMT+1.0) 30th July 2020 from run Pbcn

%BLOCK lattice_cart
   ANG
       2.82633825613615      -0.624404994734553E-34    0.00000000000000    
     -0.108606785400142E-33    4.91597036307567        0.00000000000000    
       0.00000000000000        0.00000000000000        5.04758122312692    
%ENDBLOCK lattice_cart

%BLOCK cell_constraints
      1   2   3
      0   0   0
%ENDBLOCK cell_constraints

%BLOCK positions_frac
   H              0.405279259054891       0.112205452363436       0.010040997696079
   H              0.582704375243028       0.216639928648876       0.018181360960034
   H              0.580453779436892       0.556225941457714       0.004350711002937
   H              0.145392133938762       0.171977122121475       0.249098002857864
   H              0.315866375614205       0.342347359950817       0.245492532458054
   H              0.169684188255863       0.487112856496891       0.250513985299554
   H              0.169684188255863       0.512887143503109       0.750513985299554
   H              0.315866375614205       0.657652640049183       0.745492532458054
   H              0.145392133938762       0.828022877878525       0.749098002857864
   H              0.580453779436892       0.443774058542285       0.504350711002938
   H              0.582704375243028       0.783360071351125       0.518181360960034
   H              0.405279259054891       0.887794547636563       0.510040997696080
   H              0.330315811744137       0.987112856496891       0.250513985299554
   H              0.184133624385795       0.842347359950816       0.245492532458054
   H              0.354607866061238       0.671977122121475       0.249098002857864
   H             -0.080453779436892       0.056225941457715       0.004350711002937
   H             -0.082704375243028       0.716639928648875       0.018181360960034
   H              0.094720740945109       0.612205452363437       0.010040997696079
   H              0.669684188255863       0.987112856496891       0.249486014700446
   H              0.815866375614205       0.842347359950816       0.254507467541947
   H              0.645392133938762       0.671977122121475       0.250901997142136
   H              1.080453779436891       0.056225941457715       0.495649288997063
   H              1.082704375243029       0.716639928648875       0.481818639039966
   H              0.905279259054892       0.612205452363437       0.489959002303920
   H              0.830315811744138       0.512887143503109       0.749486014700446
   H              0.684133624385795       0.657652640049183       0.754507467541946
   H              0.854607866061238       0.828022877878525       0.750901997142136
   H              0.419546220563108       0.443774058542285      -0.004350711002937
   H              0.417295624756972       0.783360071351125       0.981818639039966
   H              0.594720740945108       0.887794547636563       0.989959002303920
   H              0.830315811744138       0.487112856496891       0.249486014700446
   H              0.684133624385795       0.342347359950817       0.254507467541947
   H              0.854607866061238       0.171977122121475       0.250901997142136
   H              0.419546220563108       0.556225941457714       0.495649288997063
   H              0.417295624756972       0.216639928648876       0.481818639039966
   H              0.594720740945108       0.112205452363436       0.489959002303920
   H              0.669684188255863       0.012887143503109       0.749486014700446
   H              0.815866375614205       0.157652640049183       0.754507467541946
   H              0.645392133938762       0.328022877878525       0.750901997142136
   H              0.080453779436892      -0.056225941457715      -0.004350711002937
   H              1.082704375243029       0.283360071351124       0.981818639039966
   H              0.905279259054892       0.387794547636565       0.989959002303920
   H              0.330315811744137       0.012887143503109       0.750513985299554
   H              0.184133624385795       0.157652640049183       0.745492532458054
   H              0.354607866061238       0.328022877878525       0.749098002857864
   H              0.919546220563108      -0.056225941457715       0.504350711002938
   H             -0.082704375243028       0.283360071351124       0.518181360960034
   H              0.094720740945109       0.387794547636565       0.510040997696080
%ENDBLOCK positions_frac

FIX_COM : true

%BLOCK species_mass
   AMU
   H          2.014101778    
%ENDBLOCK species_mass

%BLOCK species_gamma
   radsectesla
   H          267522128.0    
%ENDBLOCK species_gamma

%BLOCK species_pot
   H       1|0.6|13|15|17|10(qc=8)
%ENDBLOCK species_pot

SYMMETRY_TOL :     0.001000

%BLOCK symmetry_ops
# Symm. op. 1       E
          1.000000000000000       0.000000000000000       0.000000000000000
          0.000000000000000       1.000000000000000       0.000000000000000
          0.000000000000000       0.000000000000000       1.000000000000000
          0.000000000000000       0.000000000000000       0.000000000000000
# Symm. op. 2       I
         -1.000000000000000       0.000000000000000       0.000000000000000
          0.000000000000000      -1.000000000000000       0.000000000000000
          0.000000000000000       0.000000000000000      -1.000000000000000
         -0.000000000000000      -0.000000000000000       0.000000000000000
# Symm. op. 3     2_1
         -1.000000000000000       0.000000000000000       0.000000000000000
          0.000000000000000      -1.000000000000000       0.000000000000000
          0.000000000000000       0.000000000000000       1.000000000000000
          0.500000000000000       0.500000000000000       0.500000000000000
# Symm. op. 4       n
          1.000000000000000       0.000000000000000       0.000000000000000
          0.000000000000000       1.000000000000000       0.000000000000000
          0.000000000000000       0.000000000000000      -1.000000000000000
          0.500000000000000       0.500000000000000       0.500000000000000
# Symm. op. 5     2_1
          1.000000000000000       0.000000000000000       0.000000000000000
          0.000000000000000      -1.000000000000000       0.000000000000000
          0.000000000000000       0.000000000000000      -1.000000000000000
          0.500000000000000       0.500000000000000       0.000000000000000
# Symm. op. 6       b
         -1.000000000000000       0.000000000000000       0.000000000000000
          0.000000000000000       1.000000000000000       0.000000000000000
          0.000000000000000       0.000000000000000       1.000000000000000
          0.500000000000000       0.500000000000000       0.000000000000000
# Symm. op. 7       2
         -1.000000000000000       0.000000000000000       0.000000000000000
          0.000000000000000       1.000000000000000       0.000000000000000
          0.000000000000000       0.000000000000000      -1.000000000000000
          0.000000000000000       0.000000000000000       0.500000000000000
# Symm. op. 8       c
          1.000000000000000       0.000000000000000       0.000000000000000
          0.000000000000000      -1.000000000000000       0.000000000000000
          0.000000000000000       0.000000000000000       1.000000000000000
          0.000000000000000      -0.000000000000000       0.500000000000000
%ENDBLOCK symmetry_ops

kpoint_mp_grid :    5   5   5

phonon_kpoint_mp_grid :    8   6   4



%BLOCK EXTERNAL_PRESSURE
GPA
270  0   0
    270  0
        270
%ENDBLOCK EXTERNAL_PRESSURE
