# CELL file written 13:30:10 (GMT+1.0) 31st July 2020 from run Pbcn

%BLOCK lattice_cart
   ANG
       3.54218807126450       0.314491629932563E-33    0.00000000000000    
      0.546793417121660E-33    6.15502386901898        0.00000000000000    
       0.00000000000000        0.00000000000000        6.10747707825048    
%ENDBLOCK lattice_cart

%BLOCK cell_constraints
      1   2   3
      0   0   0
%ENDBLOCK cell_constraints

%BLOCK positions_frac
   H              0.413361519955369       0.125160744898787       0.024699909697072
   H              0.566671394045635       0.203263905690274       0.049163121204911
   H              0.563351206662531       0.546769705843430       0.003569188446830
   H              0.105822604166309       0.169052298809076       0.245793669432234
   H              0.297866207442091       0.363642546731453       0.238055446016524
   H              0.192779064815641       0.467977577722547       0.256640651908306
   H              0.192779064815641       0.532022422277453       0.756640651908307
   H              0.297866207442091       0.636357453268547       0.738055446016524
   H              0.105822604166309       0.830947701190925       0.745793669432234
   H              0.563351206662531       0.453230294156569       0.503569188446829
   H              0.566671394045635       0.796736094309725       0.549163121204911
   H              0.413361519955369       0.874839255101214       0.524699909697072
   H              0.307220935184359       0.967977577722547       0.256640651908306
   H              0.202133792557909       0.863642546731452       0.238055446016524
   H              0.394177395833692       0.669052298809075       0.245793669432234
   H             -0.063351206662531       0.046769705843431       0.003569188446830
   H             -0.066671394045634       0.703263905690275       0.049163121204911
   H              0.086638480044632       0.625160744898786       0.024699909697072
   H              0.692779064815641       0.967977577722547       0.243359348091694
   H              0.797866207442090       0.863642546731452       0.261944553983477
   H              0.605822604166309       0.669052298809075       0.254206330567767
   H              1.063351206662527       0.046769705843431       0.496430811553172
   H              1.066671394045634       0.703263905690275       0.450836878795088
   H              0.913361519955369       0.625160744898786       0.475300090302928
   H              0.807220935184360       0.532022422277453       0.743359348091693
   H              0.702133792557910       0.636357453268547       0.761944553983476
   H              0.894177395833691       0.830947701190925       0.754206330567766
   H              0.436648793337468       0.453230294156569      -0.003569188446830
   H              0.433328605954366       0.796736094309725       0.950836878795089
   H              0.586638480044631       0.874839255101214       0.975300090302928
   H              0.807220935184360       0.467977577722547       0.243359348091694
   H              0.702133792557910       0.363642546731453       0.261944553983477
   H              0.894177395833691       0.169052298809076       0.254206330567767
   H              0.436648793337468       0.546769705843430       0.496430811553172
   H              0.433328605954366       0.203263905690274       0.450836878795088
   H              0.586638480044631       0.125160744898787       0.475300090302928
   H              0.692779064815641       0.032022422277452       0.743359348091693
   H              0.797866207442090       0.136357453268547       0.761944553983476
   H              0.605822604166309       0.330947701190924       0.754206330567766
   H              0.063351206662531      -0.046769705843431      -0.003569188446830
   H              1.066671394045634       0.296736094309725       0.950836878795089
   H              0.913361519955369       0.374839255101214       0.975300090302928
   H              0.307220935184359       0.032022422277452       0.756640651908307
   H              0.202133792557909       0.136357453268547       0.738055446016524
   H              0.394177395833692       0.330947701190924       0.745793669432234
   H              0.936648793337469      -0.046769705843431       0.503569188446829
   H             -0.066671394045634       0.296736094309725       0.549163121204911
   H              0.086638480044632       0.374839255101214       0.524699909697072
%ENDBLOCK positions_frac

FIX_COM : true

%BLOCK species_mass
   AMU
   H          2.014101778    
%ENDBLOCK species_mass

%BLOCK species_gamma
   radsectesla
   H          267522128.0    
%ENDBLOCK species_gamma

%BLOCK species_pot
   H       1|0.6|13|15|17|10(qc=8)
%ENDBLOCK species_pot

SYMMETRY_TOL :     0.001000

%BLOCK symmetry_ops
# Symm. op. 1       E
          1.000000000000000       0.000000000000000       0.000000000000000
          0.000000000000000       1.000000000000000       0.000000000000000
          0.000000000000000       0.000000000000000       1.000000000000000
          0.000000000000000       0.000000000000000       0.000000000000000
# Symm. op. 2       I
         -1.000000000000000       0.000000000000000       0.000000000000000
          0.000000000000000      -1.000000000000000       0.000000000000000
          0.000000000000000       0.000000000000000      -1.000000000000000
         -0.000000000000000      -0.000000000000000       0.000000000000000
# Symm. op. 3     2_1
         -1.000000000000000       0.000000000000000       0.000000000000000
          0.000000000000000      -1.000000000000000       0.000000000000000
          0.000000000000000       0.000000000000000       1.000000000000000
          0.500000000000000       0.500000000000000       0.500000000000000
# Symm. op. 4       n
          1.000000000000000       0.000000000000000       0.000000000000000
          0.000000000000000       1.000000000000000       0.000000000000000
          0.000000000000000       0.000000000000000      -1.000000000000000
          0.500000000000000       0.500000000000000       0.500000000000000
# Symm. op. 5     2_1
          1.000000000000000       0.000000000000000       0.000000000000000
          0.000000000000000      -1.000000000000000       0.000000000000000
          0.000000000000000       0.000000000000000      -1.000000000000000
          0.500000000000000       0.500000000000000       0.000000000000000
# Symm. op. 6       b
         -1.000000000000000       0.000000000000000       0.000000000000000
          0.000000000000000       1.000000000000000       0.000000000000000
          0.000000000000000       0.000000000000000       1.000000000000000
          0.500000000000000       0.500000000000000       0.000000000000000
# Symm. op. 7       2
         -1.000000000000000       0.000000000000000       0.000000000000000
          0.000000000000000       1.000000000000000       0.000000000000000
          0.000000000000000       0.000000000000000      -1.000000000000000
          0.000000000000000       0.000000000000000       0.500000000000000
# Symm. op. 8       c
          1.000000000000000       0.000000000000000       0.000000000000000
          0.000000000000000      -1.000000000000000       0.000000000000000
          0.000000000000000       0.000000000000000       1.000000000000000
          0.000000000000000      -0.000000000000000       0.500000000000000
%ENDBLOCK symmetry_ops

kpoint_mp_grid :    5   5   5

phonon_kpoint_mp_grid :    8   6   4



%BLOCK EXTERNAL_PRESSURE
GPA
030  0   0
    030  0
        030
%ENDBLOCK EXTERNAL_PRESSURE
