# CELL file written 02:31:23 (GMT+1.0) 31st July 2020 from run Pbcn

%BLOCK lattice_cart
   ANG
       2.96822992862717       0.343404960052337E-35    0.00000000000000    
      0.598783972256711E-35    5.16254707432570        0.00000000000000    
       0.00000000000000        0.00000000000000        5.29224691600238    
%ENDBLOCK lattice_cart

%BLOCK cell_constraints
      1   2   3
      0   0   0
%ENDBLOCK cell_constraints

%BLOCK positions_frac
   H              0.402597168670032       0.115145766765467       0.010206665471074
   H              0.577937736554550       0.211265956557172       0.028355301000250
   H              0.574080143893310       0.555206067757759       0.004864618982246
   H              0.134691647010317       0.171841022443644       0.248384880116774
   H              0.310148527639385       0.348235115910969       0.243177206462775
   H              0.175105189735869       0.482138989156610       0.250173701395962
   H              0.175105189735869       0.517861010843390       0.750173701395962
   H              0.310148527639385       0.651764884089031       0.743177206462775
   H              0.134691647010317       0.828158977556355       0.748384880116774
   H              0.574080143893310       0.444793932242241       0.504864618982246
   H              0.577937736554550       0.788734043442828       0.528355301000250
   H              0.402597168670032       0.884854233234532       0.510206665471074
   H              0.324894810264131       0.982138989156610       0.250173701395962
   H              0.189851472360615       0.848235115910968       0.243177206462775
   H              0.365308352989683       0.671841022443645       0.248384880116774
   H             -0.074080143893310       0.055206067757759       0.004864618982246
   H             -0.077937736554549       0.711265956557172       0.028355301000250
   H              0.097402831329969       0.615145766765468       0.010206665471074
   H              0.675105189735869       0.982138989156610       0.249826298604038
   H              0.810148527639385       0.848235115910968       0.256822793537226
   H              0.634691647010317       0.671841022443645       0.251615119883227
   H              1.074080143893308       0.055206067757759       0.495135381017755
   H              1.077937736554549       0.711265956557172       0.471644698999749
   H              0.902597168670032       0.615145766765468       0.489793334528926
   H              0.824894810264132       0.517861010843390       0.749826298604038
   H              0.689851472360615       0.651764884089031       0.756822793537225
   H              0.865308352989683       0.828158977556355       0.751615119883226
   H              0.425919856106690       0.444793932242241      -0.004864618982246
   H              0.422062263445451       0.788734043442828       0.971644698999750
   H              0.597402831329968       0.884854233234532       0.989793334528926
   H              0.824894810264132       0.482138989156610       0.249826298604038
   H              0.689851472360615       0.348235115910969       0.256822793537226
   H              0.865308352989683       0.171841022443644       0.251615119883227
   H              0.425919856106690       0.555206067757759       0.495135381017755
   H              0.422062263445451       0.211265956557172       0.471644698999749
   H              0.597402831329968       0.115145766765467       0.489793334528926
   H              0.675105189735869       0.017861010843390       0.749826298604038
   H              0.810148527639385       0.151764884089031       0.756822793537225
   H              0.634691647010317       0.328158977556356       0.751615119883226
   H              0.074080143893310      -0.055206067757759      -0.004864618982246
   H              1.077937736554549       0.288734043442828       0.971644698999750
   H              0.902597168670032       0.384854233234534       0.989793334528926
   H              0.324894810264131       0.017861010843390       0.750173701395962
   H              0.189851472360615       0.151764884089031       0.743177206462775
   H              0.365308352989683       0.328158977556356       0.748384880116774
   H              0.925919856106690      -0.055206067757759       0.504864618982246
   H             -0.077937736554549       0.288734043442828       0.528355301000250
   H              0.097402831329969       0.384854233234534       0.510206665471074
%ENDBLOCK positions_frac

FIX_COM : true

%BLOCK species_mass
   AMU
   H          2.014101778    
%ENDBLOCK species_mass

%BLOCK species_gamma
   radsectesla
   H          267522128.0    
%ENDBLOCK species_gamma

%BLOCK species_pot
   H       1|0.6|13|15|17|10(qc=8)
%ENDBLOCK species_pot

SYMMETRY_TOL :     0.001000

%BLOCK symmetry_ops
# Symm. op. 1       E
          1.000000000000000       0.000000000000000       0.000000000000000
          0.000000000000000       1.000000000000000       0.000000000000000
          0.000000000000000       0.000000000000000       1.000000000000000
          0.000000000000000       0.000000000000000       0.000000000000000
# Symm. op. 2       I
         -1.000000000000000       0.000000000000000       0.000000000000000
          0.000000000000000      -1.000000000000000       0.000000000000000
          0.000000000000000       0.000000000000000      -1.000000000000000
         -0.000000000000000      -0.000000000000000       0.000000000000000
# Symm. op. 3     2_1
         -1.000000000000000       0.000000000000000       0.000000000000000
          0.000000000000000      -1.000000000000000       0.000000000000000
          0.000000000000000       0.000000000000000       1.000000000000000
          0.500000000000000       0.500000000000000       0.500000000000000
# Symm. op. 4       n
          1.000000000000000       0.000000000000000       0.000000000000000
          0.000000000000000       1.000000000000000       0.000000000000000
          0.000000000000000       0.000000000000000      -1.000000000000000
          0.500000000000000       0.500000000000000       0.500000000000000
# Symm. op. 5     2_1
          1.000000000000000       0.000000000000000       0.000000000000000
          0.000000000000000      -1.000000000000000       0.000000000000000
          0.000000000000000       0.000000000000000      -1.000000000000000
          0.500000000000000       0.500000000000000       0.000000000000000
# Symm. op. 6       b
         -1.000000000000000       0.000000000000000       0.000000000000000
          0.000000000000000       1.000000000000000       0.000000000000000
          0.000000000000000       0.000000000000000       1.000000000000000
          0.500000000000000       0.500000000000000       0.000000000000000
# Symm. op. 7       2
         -1.000000000000000       0.000000000000000       0.000000000000000
          0.000000000000000       1.000000000000000       0.000000000000000
          0.000000000000000       0.000000000000000      -1.000000000000000
          0.000000000000000       0.000000000000000       0.500000000000000
# Symm. op. 8       c
          1.000000000000000       0.000000000000000       0.000000000000000
          0.000000000000000      -1.000000000000000       0.000000000000000
          0.000000000000000       0.000000000000000       1.000000000000000
          0.000000000000000      -0.000000000000000       0.500000000000000
%ENDBLOCK symmetry_ops

kpoint_mp_grid :    5   5   5

phonon_kpoint_mp_grid :    8   6   4



%BLOCK EXTERNAL_PRESSURE
GPA
180  0   0
    180  0
        180
%ENDBLOCK EXTERNAL_PRESSURE
