# CELL file written 22:08:00 (GMT+1.0) 30th July 2020 from run Pbcn

%BLOCK lattice_cart
   ANG
       2.86666269865731       0.246096047692036E-34    0.00000000000000    
      0.428191157474513E-34    4.98683130967864        0.00000000000000    
       0.00000000000000        0.00000000000000        5.12128042329228    
%ENDBLOCK lattice_cart

%BLOCK cell_constraints
      1   2   3
      0   0   0
%ENDBLOCK cell_constraints

%BLOCK positions_frac
   H              0.404599793392245       0.112986312712614       0.010380154894210
   H              0.581396164047420       0.215249302780512       0.020802794605116
   H              0.578801585055784       0.555836958213466       0.004674098097480
   H              0.142339432659376       0.172108742949788       0.248949174165114
   H              0.314075261609146       0.343956947543851       0.244903775412842
   H              0.171045765497392       0.485576352001025       0.250395622587480
   H              0.171045765497392       0.514423647998975       0.750395622587480
   H              0.314075261609146       0.656043052456149       0.744903775412842
   H              0.142339432659376       0.827891257050211       0.748949174165114
   H              0.578801585055784       0.444163041786533       0.504674098097481
   H              0.581396164047420       0.784750697219489       0.520802794605116
   H              0.404599793392245       0.887013687287385       0.510380154894211
   H              0.328954234502608       0.985576352001025       0.250395622587480
   H              0.185924738390854       0.843956947543850       0.244903775412842
   H              0.357660567340624       0.672108742949789       0.248949174165114
   H             -0.078801585055784       0.055836958213467       0.004674098097480
   H             -0.081396164047420       0.715249302780511       0.020802794605116
   H              0.095400206607755       0.612986312712615       0.010380154894210
   H              0.671045765497392       0.985576352001025       0.249604377412520
   H              0.814075261609146       0.843956947543850       0.255096224587159
   H              0.642339432659376       0.672108742949789       0.251050825834886
   H              1.078801585055782       0.055836958213467       0.495325901902520
   H              1.081396164047420       0.715249302780511       0.479197205394883
   H              0.904599793392245       0.612986312712615       0.489619845105789
   H              0.828954234502609       0.514423647998975       0.749604377412520
   H              0.685924738390854       0.656043052456149       0.755096224587158
   H              0.857660567340624       0.827891257050211       0.751050825834886
   H              0.421198414944216       0.444163041786533      -0.004674098097480
   H              0.418603835952580       0.784750697219489       0.979197205394884
   H              0.595400206607755       0.887013687287385       0.989619845105789
   H              0.828954234502609       0.485576352001025       0.249604377412520
   H              0.685924738390854       0.343956947543851       0.255096224587159
   H              0.857660567340624       0.172108742949788       0.251050825834886
   H              0.421198414944216       0.555836958213466       0.495325901902520
   H              0.418603835952580       0.215249302780512       0.479197205394883
   H              0.595400206607755       0.112986312712614       0.489619845105789
   H              0.671045765497392       0.014423647998975       0.749604377412520
   H              0.814075261609146       0.156043052456149       0.755096224587158
   H              0.642339432659376       0.327891257050212       0.751050825834886
   H              0.078801585055784      -0.055836958213467      -0.004674098097480
   H              1.081396164047420       0.284750697219488       0.979197205394884
   H              0.904599793392245       0.387013687287387       0.989619845105789
   H              0.328954234502608       0.014423647998975       0.750395622587480
   H              0.185924738390854       0.156043052456149       0.744903775412842
   H              0.357660567340624       0.327891257050212       0.748949174165114
   H              0.921198414944216      -0.055836958213467       0.504674098097481
   H             -0.081396164047420       0.284750697219488       0.520802794605116
   H              0.095400206607755       0.387013687287387       0.510380154894211
%ENDBLOCK positions_frac

FIX_COM : true

%BLOCK species_mass
   AMU
   H          2.014101778    
%ENDBLOCK species_mass

%BLOCK species_gamma
   radsectesla
   H          267522128.0    
%ENDBLOCK species_gamma

%BLOCK species_pot
   H       1|0.6|13|15|17|10(qc=8)
%ENDBLOCK species_pot

SYMMETRY_TOL :     0.001000

%BLOCK symmetry_ops
# Symm. op. 1       E
          1.000000000000000       0.000000000000000       0.000000000000000
          0.000000000000000       1.000000000000000       0.000000000000000
          0.000000000000000       0.000000000000000       1.000000000000000
          0.000000000000000       0.000000000000000       0.000000000000000
# Symm. op. 2       I
         -1.000000000000000       0.000000000000000       0.000000000000000
          0.000000000000000      -1.000000000000000       0.000000000000000
          0.000000000000000       0.000000000000000      -1.000000000000000
         -0.000000000000000      -0.000000000000000       0.000000000000000
# Symm. op. 3     2_1
         -1.000000000000000       0.000000000000000       0.000000000000000
          0.000000000000000      -1.000000000000000       0.000000000000000
          0.000000000000000       0.000000000000000       1.000000000000000
          0.500000000000000       0.500000000000000       0.500000000000000
# Symm. op. 4       n
          1.000000000000000       0.000000000000000       0.000000000000000
          0.000000000000000       1.000000000000000       0.000000000000000
          0.000000000000000       0.000000000000000      -1.000000000000000
          0.500000000000000       0.500000000000000       0.500000000000000
# Symm. op. 5     2_1
          1.000000000000000       0.000000000000000       0.000000000000000
          0.000000000000000      -1.000000000000000       0.000000000000000
          0.000000000000000       0.000000000000000      -1.000000000000000
          0.500000000000000       0.500000000000000       0.000000000000000
# Symm. op. 6       b
         -1.000000000000000       0.000000000000000       0.000000000000000
          0.000000000000000       1.000000000000000       0.000000000000000
          0.000000000000000       0.000000000000000       1.000000000000000
          0.500000000000000       0.500000000000000       0.000000000000000
# Symm. op. 7       2
         -1.000000000000000       0.000000000000000       0.000000000000000
          0.000000000000000       1.000000000000000       0.000000000000000
          0.000000000000000       0.000000000000000      -1.000000000000000
          0.000000000000000       0.000000000000000       0.500000000000000
# Symm. op. 8       c
          1.000000000000000       0.000000000000000       0.000000000000000
          0.000000000000000      -1.000000000000000       0.000000000000000
          0.000000000000000       0.000000000000000       1.000000000000000
          0.000000000000000      -0.000000000000000       0.500000000000000
%ENDBLOCK symmetry_ops

kpoint_mp_grid :    5   5   5

phonon_kpoint_mp_grid :    8   6   4



%BLOCK EXTERNAL_PRESSURE
GPA
240  0   0
    240  0
        240
%ENDBLOCK EXTERNAL_PRESSURE
