# CELL file written 04:50:46 (GMT+1.0) 31st July 2020 from run Pbcn

%BLOCK lattice_cart
   ANG
       3.03364170702172       0.601966992632349E-34    0.00000000000000    
      0.104715161793059E-33    5.27498984431215        0.00000000000000    
       0.00000000000000        0.00000000000000        5.39464035532070    
%ENDBLOCK lattice_cart

%BLOCK cell_constraints
      1   2   3
      0   0   0
%ENDBLOCK cell_constraints

%BLOCK positions_frac
   H              0.402293673806786       0.116638676569224       0.010547231157192
   H              0.575983901403850       0.209166375059719       0.032533530392794
   H              0.571754679601958       0.554546411021255       0.004584953142817
   H              0.130194314252131       0.171411837572102       0.248092323677095
   H              0.308109693961700       0.350745720665600       0.242371586930587
   H              0.177783401164773       0.480164893931627       0.250303023550703
   H              0.177783401164773       0.519835106068373       0.750303023550703
   H              0.308109693961700       0.649254279334400       0.742371586930587
   H              0.130194314252131       0.828588162427898       0.748092323677095
   H              0.571754679601958       0.445453588978745       0.504584953142816
   H              0.575983901403850       0.790833624940281       0.532533530392794
   H              0.402293673806786       0.883361323430776       0.510547231157192
   H              0.322216598835227       0.980164893931627       0.250303023550703
   H              0.191890306038300       0.850745720665599       0.242371586930587
   H              0.369805685747869       0.671411837572102       0.248092323677095
   H             -0.071754679601958       0.054546411021255       0.004584953142817
   H             -0.075983901403849       0.709166375059719       0.032533530392794
   H              0.097706326193215       0.616638676569224       0.010547231157192
   H              0.677783401164773       0.980164893931627       0.249696976449297
   H              0.808109693961699       0.850745720665599       0.257628413069414
   H              0.630194314252131       0.671411837572102       0.251907676322906
   H              1.071754679601956       0.054546411021255       0.495415046857185
   H              1.075983901403849       0.709166375059719       0.467466469607205
   H              0.902293673806786       0.616638676569224       0.489452768842808
   H              0.822216598835228       0.519835106068373       0.749696976449297
   H              0.691890306038301       0.649254279334400       0.757628413069413
   H              0.869805685747869       0.828588162427898       0.751907676322905
   H              0.428245320398042       0.445453588978745      -0.004584953142817
   H              0.424016098596151       0.790833624940281       0.967466469607206
   H              0.597706326193214       0.883361323430776       0.989452768842808
   H              0.822216598835228       0.480164893931627       0.249696976449297
   H              0.691890306038301       0.350745720665600       0.257628413069414
   H              0.869805685747869       0.171411837572102       0.251907676322906
   H              0.428245320398042       0.554546411021255       0.495415046857185
   H              0.424016098596151       0.209166375059719       0.467466469607205
   H              0.597706326193214       0.116638676569224       0.489452768842808
   H              0.677783401164773       0.019835106068373       0.749696976449297
   H              0.808109693961699       0.149254279334400       0.757628413069413
   H              0.630194314252131       0.328588162427898       0.751907676322905
   H              0.071754679601958      -0.054546411021255      -0.004584953142817
   H              1.075983901403849       0.290833624940281       0.967466469607206
   H              0.902293673806786       0.383361323430777       0.989452768842808
   H              0.322216598835227       0.019835106068373       0.750303023550703
   H              0.191890306038300       0.149254279334400       0.742371586930587
   H              0.369805685747869       0.328588162427898       0.748092323677095
   H              0.928245320398042      -0.054546411021255       0.504584953142816
   H             -0.075983901403849       0.290833624940281       0.532533530392794
   H              0.097706326193215       0.383361323430777       0.510547231157192
%ENDBLOCK positions_frac

FIX_COM : true

%BLOCK species_mass
   AMU
   H          2.014101778    
%ENDBLOCK species_mass

%BLOCK species_gamma
   radsectesla
   H          267522128.0    
%ENDBLOCK species_gamma

%BLOCK species_pot
   H       1|0.6|13|15|17|10(qc=8)
%ENDBLOCK species_pot

SYMMETRY_TOL :     0.001000

%BLOCK symmetry_ops
# Symm. op. 1       E
          1.000000000000000       0.000000000000000       0.000000000000000
          0.000000000000000       1.000000000000000       0.000000000000000
          0.000000000000000       0.000000000000000       1.000000000000000
          0.000000000000000       0.000000000000000       0.000000000000000
# Symm. op. 2       I
         -1.000000000000000       0.000000000000000       0.000000000000000
          0.000000000000000      -1.000000000000000       0.000000000000000
          0.000000000000000       0.000000000000000      -1.000000000000000
         -0.000000000000000      -0.000000000000000       0.000000000000000
# Symm. op. 3     2_1
         -1.000000000000000       0.000000000000000       0.000000000000000
          0.000000000000000      -1.000000000000000       0.000000000000000
          0.000000000000000       0.000000000000000       1.000000000000000
          0.500000000000000       0.500000000000000       0.500000000000000
# Symm. op. 4       n
          1.000000000000000       0.000000000000000       0.000000000000000
          0.000000000000000       1.000000000000000       0.000000000000000
          0.000000000000000       0.000000000000000      -1.000000000000000
          0.500000000000000       0.500000000000000       0.500000000000000
# Symm. op. 5     2_1
          1.000000000000000       0.000000000000000       0.000000000000000
          0.000000000000000      -1.000000000000000       0.000000000000000
          0.000000000000000       0.000000000000000      -1.000000000000000
          0.500000000000000       0.500000000000000       0.000000000000000
# Symm. op. 6       b
         -1.000000000000000       0.000000000000000       0.000000000000000
          0.000000000000000       1.000000000000000       0.000000000000000
          0.000000000000000       0.000000000000000       1.000000000000000
          0.500000000000000       0.500000000000000       0.000000000000000
# Symm. op. 7       2
         -1.000000000000000       0.000000000000000       0.000000000000000
          0.000000000000000       1.000000000000000       0.000000000000000
          0.000000000000000       0.000000000000000      -1.000000000000000
          0.000000000000000       0.000000000000000       0.500000000000000
# Symm. op. 8       c
          1.000000000000000       0.000000000000000       0.000000000000000
          0.000000000000000      -1.000000000000000       0.000000000000000
          0.000000000000000       0.000000000000000       1.000000000000000
          0.000000000000000      -0.000000000000000       0.500000000000000
%ENDBLOCK symmetry_ops

kpoint_mp_grid :    5   5   5

phonon_kpoint_mp_grid :    8   6   4



%BLOCK EXTERNAL_PRESSURE
GPA
150  0   0
    150  0
        150
%ENDBLOCK EXTERNAL_PRESSURE
