# CELL file written 12:13:40 (GMT+1.0) 28th July 2020 from run Pbcn

%BLOCK lattice_cart
   ANG
       3.54501184377399      -0.135748358124376E-33    0.00000000000000    
     -0.236323332914546E-33    6.15968440925100        0.00000000000000    
       0.00000000000000        0.00000000000000        6.10864765431721    
%ENDBLOCK lattice_cart

%BLOCK cell_constraints
      1   2   3
      0   0   0
%ENDBLOCK cell_constraints

%BLOCK positions_frac
   H              0.413592742423691       0.125233225188214       0.024690172071588
   H              0.566576469595692       0.203201730895538       0.049458385412782
   H              0.563144560230214       0.546735861479922       0.003753641053902
   H              0.105626322957931       0.169081845068794       0.245571407424066
   H              0.297771672692200       0.363767409997719       0.237955972367082
   H              0.192846622181809       0.467895989757105       0.256728277181320
   H              0.192846622181809       0.532104010242894       0.756728277181320
   H              0.297771672692200       0.636232590002281       0.737955972367081
   H              0.105626322957931       0.830918154931205       0.745571407424067
   H              0.563144560230214       0.453264138520079       0.503753641053902
   H              0.566576469595692       0.796798269104465       0.549458385412782
   H              0.413592742423691       0.874766774811786       0.524690172071589
   H              0.307153377818191       0.967895989757106       0.256728277181320
   H              0.202228327307801       0.863767409997718       0.237955972367082
   H              0.394373677042068       0.669081845068795       0.245571407424066
   H             -0.063144560230214       0.046735861479923       0.003753641053902
   H             -0.066576469595689       0.703201730895535       0.049458385412782
   H              0.086407257576308       0.625233225188214       0.024690172071588
   H              0.692846622181809       0.967895989757106       0.243271722818680
   H              0.797771672692200       0.863767409997718       0.262044027632918
   H              0.605626322957931       0.669081845068795       0.254428592575934
   H              1.063144560230214       0.046735861479923       0.496246358946098
   H              1.066576469595690       0.703201730895535       0.450541614587218
   H              0.913592742423693       0.625233225188214       0.475309827928413
   H              0.807153377818192       0.532104010242894       0.743271722818680
   H              0.702228327307800       0.636232590002281       0.762044027632919
   H              0.894373677042069       0.830918154931205       0.754428592575933
   H              0.436855439769787       0.453264138520079      -0.003753641053902
   H              0.433423530404309       0.796798269104465       0.950541614587218
   H              0.586407257576307       0.874766774811786       0.975309827928411
   H              0.807153377818192       0.467895989757105       0.243271722818680
   H              0.702228327307800       0.363767409997719       0.262044027632918
   H              0.894373677042069       0.169081845068794       0.254428592575934
   H              0.436855439769787       0.546735861479922       0.496246358946098
   H              0.433423530404309       0.203201730895538       0.450541614587218
   H              0.586407257576307       0.125233225188214       0.475309827928413
   H              0.692846622181809       0.032104010242894       0.743271722818680
   H              0.797771672692200       0.136232590002281       0.762044027632919
   H              0.605626322957931       0.330918154931206       0.754428592575933
   H              0.063144560230214      -0.046735861479923      -0.003753641053902
   H              1.066576469595690       0.296798269104463       0.950541614587218
   H              0.913592742423693       0.374766774811788       0.975309827928411
   H              0.307153377818191       0.032104010242894       0.756728277181320
   H              0.202228327307801       0.136232590002281       0.737955972367081
   H              0.394373677042068       0.330918154931206       0.745571407424067
   H              0.936855439769786      -0.046735861479923       0.503753641053902
   H             -0.066576469595689       0.296798269104463       0.549458385412782
   H              0.086407257576308       0.374766774811788       0.524690172071589
%ENDBLOCK positions_frac

FIX_COM : true

%BLOCK species_mass
   AMU
   H          1.007825032    
%ENDBLOCK species_mass

%BLOCK species_gamma
   radsectesla
   H          267522128.0    
%ENDBLOCK species_gamma

%BLOCK species_pot
   H       0|0.7|2|6|8|10L(qc=10)
%ENDBLOCK species_pot

SYMMETRY_TOL :     0.001000

%BLOCK symmetry_ops
# Symm. op. 1       E
          1.000000000000000       0.000000000000000       0.000000000000000
          0.000000000000000       1.000000000000000       0.000000000000000
          0.000000000000000       0.000000000000000       1.000000000000000
          0.000000000000000       0.000000000000000       0.000000000000000
# Symm. op. 2       I
         -1.000000000000000       0.000000000000000       0.000000000000000
          0.000000000000000      -1.000000000000000       0.000000000000000
          0.000000000000000       0.000000000000000      -1.000000000000000
         -0.000000000000000      -0.000000000000000       0.000000000000000
# Symm. op. 3     2_1
         -1.000000000000000       0.000000000000000       0.000000000000000
          0.000000000000000      -1.000000000000000       0.000000000000000
          0.000000000000000       0.000000000000000       1.000000000000000
          0.500000000000000       0.500000000000000       0.500000000000000
# Symm. op. 4       n
          1.000000000000000       0.000000000000000       0.000000000000000
          0.000000000000000       1.000000000000000       0.000000000000000
          0.000000000000000       0.000000000000000      -1.000000000000000
          0.500000000000000       0.500000000000000       0.500000000000000
# Symm. op. 5     2_1
          1.000000000000000       0.000000000000000       0.000000000000000
          0.000000000000000      -1.000000000000000       0.000000000000000
          0.000000000000000       0.000000000000000      -1.000000000000000
          0.500000000000000       0.500000000000000       0.000000000000000
# Symm. op. 6       b
         -1.000000000000000       0.000000000000000       0.000000000000000
          0.000000000000000       1.000000000000000       0.000000000000000
          0.000000000000000       0.000000000000000       1.000000000000000
          0.500000000000000       0.500000000000000       0.000000000000000
# Symm. op. 7       2
         -1.000000000000000       0.000000000000000       0.000000000000000
          0.000000000000000       1.000000000000000       0.000000000000000
          0.000000000000000       0.000000000000000      -1.000000000000000
          0.000000000000000       0.000000000000000       0.500000000000000
# Symm. op. 8       c
          1.000000000000000       0.000000000000000       0.000000000000000
          0.000000000000000      -1.000000000000000       0.000000000000000
          0.000000000000000       0.000000000000000       1.000000000000000
          0.000000000000000      -0.000000000000000       0.500000000000000
%ENDBLOCK symmetry_ops

kpoint_mp_grid :    5   5   5

phonon_kpoint_mp_grid :    8   6   4

%BLOCK external_pressure
   GPA
        60.00000000      0.00000000      0.00000000
        60.00000000      0.00000000
        60.00000000
%ENDBLOCK external_pressure

