# CELL file written 15:49:59 (GMT+1.0) 28th July 2020 from run Pbcn

%BLOCK lattice_cart
   ANG
       3.63485593786107      -0.102343777252543E-33    0.00000000000000    
     -0.178343809180749E-33    6.31459967796714        0.00000000000000    
       0.00000000000000        0.00000000000000        6.22773499848698    
%ENDBLOCK lattice_cart

%BLOCK cell_constraints
      1   2   3
      0   0   0
%ENDBLOCK cell_constraints

%BLOCK positions_frac
   H              0.416290225011206       0.126370109661743       0.027152059535198
   H              0.565330484804890       0.202677006753167       0.052098230766768
   H              0.561514853246034       0.545658862038351       0.004645356655792
   H              0.102402562308627       0.168975679640913       0.244102439279880
   H              0.296432613558220       0.365665694380255       0.236041353278420
   H              0.194546046520284       0.465980685647905       0.258922775325933
   H              0.194546046520284       0.534019314352095       0.758922775325933
   H              0.296432613558220       0.634334305619745       0.736041353278418
   H              0.102402562308627       0.831024320359086       0.744102439279883
   H              0.561514853246034       0.454341137961650       0.504645356655792
   H              0.565330484804890       0.797322993246836       0.552098230766767
   H              0.416290225011206       0.873629890338257       0.527152059535200
   H              0.305453953479716       0.965980685647905       0.258922775325933
   H              0.203567386441781       0.865665694380254       0.236041353278420
   H              0.397597437691372       0.668975679640914       0.244102439279880
   H             -0.061514853246033       0.045658862038352       0.004645356655792
   H             -0.065330484804887       0.702677006753164       0.052098230766768
   H              0.083709774988793       0.626370109661743       0.027152059535198
   H              0.694546046520284       0.965980685647905       0.241077224674067
   H              0.796432613558220       0.865665694380254       0.263958646721580
   H              0.602402562308627       0.668975679640914       0.255897560720120
   H              1.061514853246033       0.045658862038352       0.495354643344208
   H              1.065330484804888       0.702677006753164       0.447901769233232
   H              0.916290225011208       0.626370109661743       0.472847940464803
   H              0.805453953479717       0.534019314352095       0.741077224674067
   H              0.703567386441780       0.634334305619745       0.763958646721582
   H              0.897597437691373       0.831024320359086       0.755897560720117
   H              0.438485146753968       0.454341137961650      -0.004645356655792
   H              0.434669515195111       0.797322993246836       0.947901769233233
   H              0.583709774988792       0.873629890338257       0.972847940464800
   H              0.805453953479717       0.465980685647905       0.241077224674067
   H              0.703567386441780       0.365665694380255       0.263958646721580
   H              0.897597437691373       0.168975679640913       0.255897560720120
   H              0.438485146753968       0.545658862038351       0.495354643344208
   H              0.434669515195111       0.202677006753167       0.447901769233232
   H              0.583709774988792       0.126370109661743       0.472847940464803
   H              0.694546046520284       0.034019314352094       0.741077224674067
   H              0.796432613558220       0.134334305619745       0.763958646721582
   H              0.602402562308627       0.331024320359087       0.755897560720117
   H              0.061514853246033      -0.045658862038352      -0.004645356655792
   H              1.065330484804888       0.297322993246834       0.947901769233233
   H              0.916290225011208       0.373629890338259       0.972847940464800
   H              0.305453953479716       0.034019314352094       0.758922775325933
   H              0.203567386441781       0.134334305619745       0.736041353278418
   H              0.397597437691372       0.331024320359087       0.744102439279883
   H              0.938485146753966      -0.045658862038352       0.504645356655792
   H             -0.065330484804887       0.297322993246834       0.552098230766767
   H              0.083709774988793       0.373629890338259       0.527152059535200
%ENDBLOCK positions_frac

FIX_COM : true

%BLOCK species_mass
   AMU
   H          1.007825032    
%ENDBLOCK species_mass

%BLOCK species_gamma
   radsectesla
   H          267522128.0    
%ENDBLOCK species_gamma

%BLOCK species_pot
   H       0|0.7|2|6|8|10L(qc=10)
%ENDBLOCK species_pot

SYMMETRY_TOL :     0.001000

%BLOCK symmetry_ops
# Symm. op. 1       E
          1.000000000000000       0.000000000000000       0.000000000000000
          0.000000000000000       1.000000000000000       0.000000000000000
          0.000000000000000       0.000000000000000       1.000000000000000
          0.000000000000000       0.000000000000000       0.000000000000000
# Symm. op. 2       I
         -1.000000000000000       0.000000000000000       0.000000000000000
          0.000000000000000      -1.000000000000000       0.000000000000000
          0.000000000000000       0.000000000000000      -1.000000000000000
         -0.000000000000000      -0.000000000000000       0.000000000000000
# Symm. op. 3     2_1
         -1.000000000000000       0.000000000000000       0.000000000000000
          0.000000000000000      -1.000000000000000       0.000000000000000
          0.000000000000000       0.000000000000000       1.000000000000000
          0.500000000000000       0.500000000000000       0.500000000000000
# Symm. op. 4       n
          1.000000000000000       0.000000000000000       0.000000000000000
          0.000000000000000       1.000000000000000       0.000000000000000
          0.000000000000000       0.000000000000000      -1.000000000000000
          0.500000000000000       0.500000000000000       0.500000000000000
# Symm. op. 5     2_1
          1.000000000000000       0.000000000000000       0.000000000000000
          0.000000000000000      -1.000000000000000       0.000000000000000
          0.000000000000000       0.000000000000000      -1.000000000000000
          0.500000000000000       0.500000000000000       0.000000000000000
# Symm. op. 6       b
         -1.000000000000000       0.000000000000000       0.000000000000000
          0.000000000000000       1.000000000000000       0.000000000000000
          0.000000000000000       0.000000000000000       1.000000000000000
          0.500000000000000       0.500000000000000       0.000000000000000
# Symm. op. 7       2
         -1.000000000000000       0.000000000000000       0.000000000000000
          0.000000000000000       1.000000000000000       0.000000000000000
          0.000000000000000       0.000000000000000      -1.000000000000000
          0.000000000000000       0.000000000000000       0.500000000000000
# Symm. op. 8       c
          1.000000000000000       0.000000000000000       0.000000000000000
          0.000000000000000      -1.000000000000000       0.000000000000000
          0.000000000000000       0.000000000000000       1.000000000000000
          0.000000000000000      -0.000000000000000       0.500000000000000
%ENDBLOCK symmetry_ops

kpoint_mp_grid :    5   5   5

phonon_kpoint_mp_grid :    8   6   4

%BLOCK external_pressure
   GPA
        50.00000000      0.00000000      0.00000000
        50.00000000      0.00000000
        50.00000000
%ENDBLOCK external_pressure

