# CELL file written 21:28:26 (GMT+1.0) 7th August 2020 from run Pbcn

%BLOCK lattice_cart
   ANG
       3.63488999199052      -0.899309824375639E-34    0.00000000000000    
     -0.156791056115237E-33    6.31431086942896        0.00000000000000    
       0.00000000000000        0.00000000000000        6.22735235277514    
%ENDBLOCK lattice_cart

%BLOCK cell_constraints
      1   2   3
      0   0   0
%ENDBLOCK cell_constraints

%BLOCK positions_frac
   H              0.416203913885830       0.126394347491020       0.027200846572319
   H              0.565397728481809       0.202635267313038       0.052064709328266
   H              0.561557815375691       0.545648749879208       0.004579380712164
   H              0.102412277279840       0.168973278838093       0.244149134438820
   H              0.296412915658868       0.365660029980311       0.236055630579912
   H              0.194549906038228       0.465992402590329       0.258927764198155
   H              0.194549906038228       0.534007597409671       0.758927764198155
   H              0.296412915658868       0.634339970019689       0.736055630579910
   H              0.102412277279840       0.831026721161906       0.744149134438822
   H              0.561557815375691       0.454351250120793       0.504579380712164
   H              0.565397728481809       0.797364732686965       0.552064709328265
   H              0.416203913885830       0.873605652508981       0.527200846572322
   H              0.305450093961772       0.965992402590329       0.258927764198155
   H              0.203587084341133       0.865660029980310       0.236055630579912
   H              0.397587722720159       0.668973278838094       0.244149134438820
   H             -0.061557815375690       0.045648749879209       0.004579380712164
   H             -0.065397728481806       0.702635267313035       0.052064709328266
   H              0.083796086114169       0.626394347491019       0.027200846572319
   H              0.694549906038227       0.965992402590329       0.241072235801845
   H              0.796412915658867       0.865660029980310       0.263944369420088
   H              0.602412277279839       0.668973278838094       0.255850865561180
   H              1.061557815375689       0.045648749879209       0.495420619287836
   H              1.065397728481807       0.702635267313035       0.447935290671734
   H              0.916203913885832       0.626394347491019       0.472799153427682
   H              0.805450093961774       0.534007597409671       0.741072235801845
   H              0.703587084341133       0.634339970019689       0.763944369420090
   H              0.897587722720161       0.831026721161906       0.755850865561178
   H              0.438442184624311       0.454351250120793      -0.004579380712164
   H              0.434602271518192       0.797364732686965       0.947935290671735
   H              0.583796086114168       0.873605652508981       0.972799153427678
   H              0.805450093961774       0.465992402590329       0.241072235801845
   H              0.703587084341133       0.365660029980311       0.263944369420088
   H              0.897587722720161       0.168973278838093       0.255850865561180
   H              0.438442184624311       0.545648749879208       0.495420619287836
   H              0.434602271518192       0.202635267313038       0.447935290671734
   H              0.583796086114168       0.126394347491020       0.472799153427682
   H              0.694549906038227       0.034007597409670       0.741072235801845
   H              0.796412915658867       0.134339970019689       0.763944369420090
   H              0.602412277279839       0.331026721161907       0.755850865561178
   H              0.061557815375690      -0.045648749879209      -0.004579380712164
   H              1.065397728481807       0.297364732686963       0.947935290671735
   H              0.916203913885832       0.373605652508982       0.972799153427678
   H              0.305450093961772       0.034007597409670       0.758927764198155
   H              0.203587084341133       0.134339970019689       0.736055630579910
   H              0.397587722720159       0.331026721161907       0.744149134438822
   H              0.938442184624309      -0.045648749879209       0.504579380712164
   H             -0.065397728481806       0.297364732686963       0.552064709328265
   H              0.083796086114169       0.373605652508982       0.527200846572322
%ENDBLOCK positions_frac

FIX_COM : true

%BLOCK species_mass
   AMU
   H          1.007825032    
%ENDBLOCK species_mass

%BLOCK species_gamma
   radsectesla
   H          267522128.0    
%ENDBLOCK species_gamma

%BLOCK species_pot
   H       0|0.7|2|6|8|10L(qc=10)
%ENDBLOCK species_pot

SYMMETRY_TOL :     0.001000

%BLOCK symmetry_ops
# Symm. op. 1       E
          1.000000000000000       0.000000000000000       0.000000000000000
          0.000000000000000       1.000000000000000       0.000000000000000
          0.000000000000000       0.000000000000000       1.000000000000000
          0.000000000000000       0.000000000000000       0.000000000000000
# Symm. op. 2       I
         -1.000000000000000       0.000000000000000       0.000000000000000
          0.000000000000000      -1.000000000000000       0.000000000000000
          0.000000000000000       0.000000000000000      -1.000000000000000
         -0.000000000000000      -0.000000000000000       0.000000000000000
# Symm. op. 3     2_1
         -1.000000000000000       0.000000000000000       0.000000000000000
          0.000000000000000      -1.000000000000000       0.000000000000000
          0.000000000000000       0.000000000000000       1.000000000000000
          0.500000000000000       0.500000000000000       0.500000000000000
# Symm. op. 4       n
          1.000000000000000       0.000000000000000       0.000000000000000
          0.000000000000000       1.000000000000000       0.000000000000000
          0.000000000000000       0.000000000000000      -1.000000000000000
          0.500000000000000       0.500000000000000       0.500000000000000
# Symm. op. 5     2_1
          1.000000000000000       0.000000000000000       0.000000000000000
          0.000000000000000      -1.000000000000000       0.000000000000000
          0.000000000000000       0.000000000000000      -1.000000000000000
          0.500000000000000       0.500000000000000       0.000000000000000
# Symm. op. 6       b
         -1.000000000000000       0.000000000000000       0.000000000000000
          0.000000000000000       1.000000000000000       0.000000000000000
          0.000000000000000       0.000000000000000       1.000000000000000
          0.500000000000000       0.500000000000000       0.000000000000000
# Symm. op. 7       2
         -1.000000000000000       0.000000000000000       0.000000000000000
          0.000000000000000       1.000000000000000       0.000000000000000
          0.000000000000000       0.000000000000000      -1.000000000000000
          0.000000000000000       0.000000000000000       0.500000000000000
# Symm. op. 8       c
          1.000000000000000       0.000000000000000       0.000000000000000
          0.000000000000000      -1.000000000000000       0.000000000000000
          0.000000000000000       0.000000000000000       1.000000000000000
          0.000000000000000      -0.000000000000000       0.500000000000000
%ENDBLOCK symmetry_ops

kpoint_mp_grid :    7   7   7

phonon_kpoint_mp_grid :    1   1   1

%BLOCK external_pressure
   GPA
        50.00000000      0.00000000      0.00000000
        50.00000000      0.00000000
        50.00000000
%ENDBLOCK external_pressure

