# CELL file written 19:24:56 (GMT+1.0) 25th July 2020 from run C2c

%BLOCK lattice_cart
   ANG
       5.18791385687057        0.00000000000000      -0.202128952954317E-01
       0.00000000000000        2.81289452320825        0.00000000000000    
      -3.45782948032096        0.00000000000000        2.94670913997447    
%ENDBLOCK lattice_cart

%BLOCK cell_constraints
      1   2   3
      0   5   0
%ENDBLOCK cell_constraints

%BLOCK positions_frac
   H              0.166667499190358      -0.110224436418786       0.250000071632070
   H              0.333334149044780       0.110225709369166       0.250000046348765
   H              0.500000000000000       0.110226330240176       0.750000000000000
   H              0.500000000000000       0.389776195601245       0.750000000000000
   H              0.833332500809640      -0.110224436418786       0.249999928367928
   H              0.666665850955220       0.110225709369166       0.249999953651235
   H              0.666667499190360       0.389775563581215       0.250000071632070
   H              0.833334149044780       0.610225709369168       0.250000046348765
   H              0.000000000000000       0.610226330240176       0.750000000000000
   H              0.000000000000000       0.889776195601246       0.750000000000000
   H              0.333332500809642       0.389775563581215       0.249999928367928
   H              0.166665850955220       0.610225709369168       0.249999953651235
   H              0.333332500809642       0.610224436418786       0.749999928367928
   H              0.166665850955220       0.389774290630834       0.749999953651234
   H              0.000000000000000       0.389773669759824       0.250000000000000
   H              0.000000000000000       0.110223804398755       0.250000000000000
   H              0.666667499190360       0.610224436418786       0.750000071632072
   H              0.833334149044780       0.389774290630834       0.750000046348766
   H              0.833332500809640       1.110224436418788       0.749999928367928
   H              0.666665850955220       0.889774290630832       0.749999953651234
   H              0.500000000000000       0.889773669759824       0.250000000000000
   H              0.500000000000000       0.610223804398754       0.250000000000000
   H              0.166667499190358       1.110224436418788       0.750000071632072
   H              0.333334149044780       0.889774290630832       0.750000046348766
%ENDBLOCK positions_frac

FIX_COM : true

%BLOCK species_gamma
   radsectesla
   H          267522128.0    
%ENDBLOCK species_gamma

%BLOCK species_pot
   H       0|0.7|2|6|8|10L(qc=10)
%ENDBLOCK species_pot

SYMMETRY_TOL :     0.001000

%BLOCK symmetry_ops
# Symm. op. 1       E
          1.000000000000000       0.000000000000000       0.000000000000000
          0.000000000000000       1.000000000000000       0.000000000000000
         -0.000000000000000       0.000000000000000       1.000000000000000
          0.000000000000000       0.000000000000000       0.000000000000000
# Symm. op. 2       I
         -1.000000000000000       0.000000000000000       0.000000000000000
          0.000000000000000      -1.000000000000000       0.000000000000000
          0.000000000000000       0.000000000000000      -1.000000000000000
         -0.000000000000000      -0.000000000000000      -0.000000000000000
# Symm. op. 3     2_1
         -1.000000000000000       0.000000000000000       0.000000000000000
          0.000000000000000       1.000000000000000       0.000000000000000
          0.000000000000000       0.000000000000000      -1.000000000000000
          0.500000000000000       0.500000000000000       0.500000000000000
# Symm. op. 4       n
          1.000000000000000       0.000000000000000       0.000000000000000
          0.000000000000000      -1.000000000000000       0.000000000000000
         -0.000000000000000       0.000000000000000       1.000000000000000
          0.500000000000000       0.500000000000000       0.500000000000000
# Symm. op. 5       E
          1.000000000000000       0.000000000000000       0.000000000000000
          0.000000000000000       1.000000000000000       0.000000000000000
         -0.000000000000000       0.000000000000000       1.000000000000000
          0.500000000000000       0.500000000000000       0.000000000000000
# Symm. op. 6       I
         -1.000000000000000       0.000000000000000       0.000000000000000
          0.000000000000000      -1.000000000000000       0.000000000000000
          0.000000000000000       0.000000000000000      -1.000000000000000
          0.500000000000000       0.500000000000000      -0.000000000000000
# Symm. op. 7       2
         -1.000000000000000       0.000000000000000       0.000000000000000
          0.000000000000000       1.000000000000000       0.000000000000000
          0.000000000000000       0.000000000000000      -1.000000000000000
         -0.000000000000000       0.000000000000000       0.500000000000000
# Symm. op. 8       c
          1.000000000000000       0.000000000000000       0.000000000000000
          0.000000000000000      -1.000000000000000       0.000000000000000
         -0.000000000000000       0.000000000000000       1.000000000000000
          0.000000000000000      -0.000000000000000       0.500000000000000
%ENDBLOCK symmetry_ops

kpoint_mp_grid :    2   2   2

phonon_kpoint_mp_grid :    1   1   1


