|270,180,10|
# CELL file written 20:42:46 (GMT+1.0) 21st July 2020 from run C2c

%BLOCK lattice_cart
   ANG
       4.90121921710791        0.00000000000000      -0.215721805315330E-01
       0.00000000000000        2.68411415709943        0.00000000000000    
      -3.26811453716161        0.00000000000000        2.79267708981653    
%ENDBLOCK lattice_cart

%BLOCK cell_constraints
      1   2   3
      0   5   0
%ENDBLOCK cell_constraints

%BLOCK positions_frac
   H              0.185105426301921      -0.090720717842726       0.252015902987905
   H              0.349442690670270       0.120652158962486       0.250669419856047
   H              0.500000000000000       0.130793699852477       0.750000000000000
   H              0.500000000000000       0.422982997508651       0.750000000000000
   H              0.814894573698078      -0.090720717842726       0.247984097012094
   H              0.650557309329730       0.120652158962486       0.249330580143953
   H              0.685105426301922       0.409279282157276       0.252015902987905
   H              0.849442690670270       0.620652158962487       0.250669419856047
   H              0.000000000000000       0.630793699852477       0.750000000000000
   H              0.000000000000000       0.922982997508651       0.750000000000000
   H              0.314894573698079       0.409279282157276       0.247984097012094
   H              0.150557309329730       0.620652158962487       0.249330580143953
   H              0.314894573698079       0.590720717842726       0.747984097012094
   H              0.150557309329730       0.379347841037514       0.749330580143953
   H              0.000000000000000       0.369206300147523       0.250000000000000
   H              0.000000000000000       0.077017002491349       0.250000000000000
   H              0.685105426301922       0.590720717842726       0.752015902987906
   H              0.849442690670270       0.379347841037514       0.750669419856047
   H              0.814894573698078       1.090720717842726       0.747984097012094
   H              0.650557309329730       0.879347841037513       0.749330580143953
   H              0.500000000000000       0.869206300147523       0.250000000000000
   H              0.500000000000000       0.577017002491349       0.250000000000000
   H              0.185105426301921       1.090720717842726       0.752015902987906
   H              0.349442690670270       0.879347841037513       0.750669419856047
%ENDBLOCK positions_frac

FIX_COM : true

%BLOCK species_gamma
   radsectesla
   H          267522128.0    
%ENDBLOCK species_gamma

%BLOCK species_pot
   H       0|0.7|2|6|8|10L(qc=10)
%ENDBLOCK species_pot

SYMMETRY_TOL :     0.001000

%BLOCK symmetry_ops
# Symm. op. 1       E
          1.000000000000000       0.000000000000000       0.000000000000000
          0.000000000000000       1.000000000000000       0.000000000000000
         -0.000000000000000       0.000000000000000       1.000000000000000
          0.000000000000000       0.000000000000000       0.000000000000000
# Symm. op. 2       I
         -1.000000000000000       0.000000000000000       0.000000000000000
          0.000000000000000      -1.000000000000000       0.000000000000000
          0.000000000000000       0.000000000000000      -1.000000000000000
         -0.000000000000000      -0.000000000000000      -0.000000000000000
# Symm. op. 3     2_1
         -1.000000000000000       0.000000000000000       0.000000000000000
          0.000000000000000       1.000000000000000       0.000000000000000
          0.000000000000000       0.000000000000000      -1.000000000000000
          0.500000000000000       0.500000000000000       0.500000000000000
# Symm. op. 4       n
          1.000000000000000       0.000000000000000       0.000000000000000
          0.000000000000000      -1.000000000000000       0.000000000000000
         -0.000000000000000       0.000000000000000       1.000000000000000
          0.500000000000000       0.500000000000000       0.500000000000000
# Symm. op. 5       E
          1.000000000000000       0.000000000000000       0.000000000000000
          0.000000000000000       1.000000000000000       0.000000000000000
         -0.000000000000000       0.000000000000000       1.000000000000000
          0.500000000000000       0.500000000000000       0.000000000000000
# Symm. op. 6       I
         -1.000000000000000       0.000000000000000       0.000000000000000
          0.000000000000000      -1.000000000000000       0.000000000000000
          0.000000000000000       0.000000000000000      -1.000000000000000
          0.500000000000000       0.500000000000000      -0.000000000000000
# Symm. op. 7       2
         -1.000000000000000       0.000000000000000       0.000000000000000
          0.000000000000000       1.000000000000000       0.000000000000000
          0.000000000000000       0.000000000000000      -1.000000000000000
         -0.000000000000000       0.000000000000000       0.500000000000000
# Symm. op. 8       c
          1.000000000000000       0.000000000000000       0.000000000000000
          0.000000000000000      -1.000000000000000       0.000000000000000
         -0.000000000000000       0.000000000000000       1.000000000000000
          0.000000000000000      -0.000000000000000       0.500000000000000
%ENDBLOCK symmetry_ops

kpoint_mp_grid :    2   2   2

phonon_kpoint_mp_grid :    1   1   1

