# CELL file written 13:04:22 (GMT+1.0) 5th August 2020 from run Pca21

%BLOCK lattice_cart
   ANG
       3.54645716538890        0.00000000000000        0.00000000000000    
       0.00000000000000        2.05987049166124        0.00000000000000    
       0.00000000000000        0.00000000000000        3.28900619778063    
%ENDBLOCK lattice_cart

%BLOCK cell_constraints
      1   2   3
      0   0   0
%ENDBLOCK cell_constraints

%BLOCK positions_frac
   H              0.355822349493419       0.142089538316635       0.379318136109578
   H              0.477074661924000       0.359709230528960       0.499582097457322
   H              0.977074661924001       0.640290769471039       0.499582097457322
   H              0.855822349493420       0.857910461683365       0.379318136109578
   H              0.022925338076000       0.359709230528960      -0.000417902542677
   H              0.144177650506579       0.142089538316635       0.879318136109578
   H              0.522925338075999       0.640290769471039      -0.000417902542677
   H              0.644177650506580       0.857910461683365       0.879318136109578
%ENDBLOCK positions_frac

FIX_COM : true

%BLOCK species_mass
   AMU
   H          1.007825032    
%ENDBLOCK species_mass

%BLOCK species_gamma
   radsectesla
   H          267522128.0    
%ENDBLOCK species_gamma

%BLOCK species_pot
   H       0|0.7|2|6|8|10L(qc=10)
%ENDBLOCK species_pot

SYMMETRY_TOL :     0.001000

%BLOCK symmetry_ops
# Symm. op. 1       E
          1.000000000000000       0.000000000000000       0.000000000000000
          0.000000000000000       1.000000000000000       0.000000000000000
          0.000000000000000       0.000000000000000       1.000000000000000
          0.000000000000000       0.000000000000000       0.000000000000000
# Symm. op. 2     2_1
         -1.000000000000000       0.000000000000000       0.000000000000000
          0.000000000000000      -1.000000000000000       0.000000000000000
          0.000000000000000       0.000000000000000       1.000000000000000
         -0.000000000000000      -0.000000000000000       0.500000000000000
# Symm. op. 3       c
         -1.000000000000000       0.000000000000000       0.000000000000000
          0.000000000000000       1.000000000000000       0.000000000000000
          0.000000000000000       0.000000000000000       1.000000000000000
          0.500000000000000       0.000000000000000       0.500000000000000
# Symm. op. 4       a
          1.000000000000000       0.000000000000000       0.000000000000000
          0.000000000000000      -1.000000000000000       0.000000000000000
          0.000000000000000       0.000000000000000       1.000000000000000
          0.500000000000000      -0.000000000000000       0.000000000000000
%ENDBLOCK symmetry_ops

kpoint_mp_grid :    7  13   9

phonon_kpoint_mp_grid :    1   1   1

%BLOCK external_pressure
   GPA
        50.00000000      0.00000000      0.00000000
        50.00000000      0.00000000
        50.00000000
%ENDBLOCK external_pressure

