# CELL file written 21:20:50 (GMT+1.0) 21st July 2020 from run C2c

%BLOCK lattice_cart
   ANG
       5.72833316850985        0.00000000000000      -0.158506321452369E-01
       0.00000000000000        3.03888249193207        0.00000000000000    
      -3.81453215503105        0.00000000000000        3.20558712155841    
%ENDBLOCK lattice_cart

%BLOCK cell_constraints
      1   2   3
      0   5   0
%ENDBLOCK cell_constraints

%BLOCK positions_frac
   H              0.166666671299362      -0.123032164613199       0.249999990987399
   H              0.333333356858400       0.123032186533043       0.250000009860307
   H              0.500000000000000       0.123032189463003       0.750000000000000
   H              0.500000000000000       0.376967844569379       0.750000000000000
   H              0.833333328700637      -0.123032164613199       0.250000009012600
   H              0.666666643141600       0.123032186533043       0.249999990139693
   H              0.666666671299363       0.376967835386803       0.249999990987399
   H              0.833333356858400       0.623032186533044       0.250000009860307
   H              0.000000000000000       0.623032189463003       0.750000000000000
   H              0.000000000000000       0.876967844569379       0.750000000000000
   H              0.333333328700638       0.376967835386803       0.250000009012600
   H              0.166666643141600       0.623032186533044       0.249999990139693
   H              0.333333328700638       0.623032164613199       0.750000009012600
   H              0.166666643141600       0.376967813466957       0.749999990139692
   H              0.000000000000000       0.376967810536997       0.250000000000000
   H              0.000000000000000       0.123032155430621       0.250000000000000
   H              0.666666671299363       0.623032164613199       0.749999990987400
   H              0.833333356858400       0.376967813466957       0.750000009860308
   H              0.833333328700637       1.123032164613200       0.750000009012600
   H              0.666666643141600       0.876967813466956       0.749999990139692
   H              0.500000000000000       0.876967810536997       0.250000000000000
   H              0.500000000000000       0.623032155430621       0.250000000000000
   H              0.166666671299362       1.123032164613200       0.749999990987400
   H              0.333333356858400       0.876967813466956       0.750000009860308
%ENDBLOCK positions_frac

FIX_COM : true

%BLOCK species_gamma
   radsectesla
   H          267522128.0    
%ENDBLOCK species_gamma

%BLOCK species_pot
   H       0|0.7|2|6|8|10L(qc=10)
%ENDBLOCK species_pot

SYMMETRY_TOL :     0.001000

%BLOCK symmetry_ops
# Symm. op. 1       E
          1.000000000000000       0.000000000000000       0.000000000000000
          0.000000000000000       1.000000000000000       0.000000000000000
         -0.000000000000000       0.000000000000000       1.000000000000000
          0.000000000000000       0.000000000000000       0.000000000000000
# Symm. op. 2       I
         -1.000000000000000       0.000000000000000       0.000000000000000
          0.000000000000000      -1.000000000000000       0.000000000000000
          0.000000000000000       0.000000000000000      -1.000000000000000
         -0.000000000000000      -0.000000000000000      -0.000000000000000
# Symm. op. 3     2_1
         -1.000000000000000       0.000000000000000       0.000000000000000
          0.000000000000000       1.000000000000000       0.000000000000000
          0.000000000000000       0.000000000000000      -1.000000000000000
          0.500000000000000       0.500000000000000       0.500000000000000
# Symm. op. 4       n
          1.000000000000000       0.000000000000000       0.000000000000000
          0.000000000000000      -1.000000000000000       0.000000000000000
         -0.000000000000000       0.000000000000000       1.000000000000000
          0.500000000000000       0.500000000000000       0.500000000000000
# Symm. op. 5       E
          1.000000000000000       0.000000000000000       0.000000000000000
          0.000000000000000       1.000000000000000       0.000000000000000
         -0.000000000000000       0.000000000000000       1.000000000000000
          0.500000000000000       0.500000000000000       0.000000000000000
# Symm. op. 6       I
         -1.000000000000000       0.000000000000000       0.000000000000000
          0.000000000000000      -1.000000000000000       0.000000000000000
          0.000000000000000       0.000000000000000      -1.000000000000000
          0.500000000000000       0.500000000000000      -0.000000000000000
# Symm. op. 7       2
         -1.000000000000000       0.000000000000000       0.000000000000000
          0.000000000000000       1.000000000000000       0.000000000000000
          0.000000000000000       0.000000000000000      -1.000000000000000
         -0.000000000000000       0.000000000000000       0.500000000000000
# Symm. op. 8       c
          1.000000000000000       0.000000000000000       0.000000000000000
          0.000000000000000      -1.000000000000000       0.000000000000000
         -0.000000000000000       0.000000000000000       1.000000000000000
          0.000000000000000      -0.000000000000000       0.500000000000000
%ENDBLOCK symmetry_ops

kpoint_mp_grid :    2   2   2

phonon_kpoint_mp_grid :    1   1   1



%BLOCK EXTERNAL_PRESSURE
GPA
060  0   0
    060  0
        060
%ENDBLOCK EXTERNAL_PRESSURE
