# CELL file written 21:15:21 (GMT+1.0) 21st July 2020 from run C2c

%BLOCK lattice_cart
   ANG
       5.07903642190415        0.00000000000000      -0.209382780971117E-01
       0.00000000000000        2.76448088885668        0.00000000000000    
      -3.38590256326396        0.00000000000000        2.88773484800552    
%ENDBLOCK lattice_cart

%BLOCK cell_constraints
      1   2   3
      0   5   0
%ENDBLOCK cell_constraints

%BLOCK positions_frac
   H              0.173705134174074      -0.102540007629150       0.250686363496229
   H              0.339912578613996       0.113374138302286       0.250376205508392
   H              0.500000000000000       0.118300487146754       0.750000000000000
   H              0.500000000000000       0.403023838069544       0.750000000000000
   H              0.826294865825924      -0.102540007629150       0.249313636503770
   H              0.660087421386003       0.113374138302286       0.249623794491608
   H              0.673705134174076       0.397459992370852       0.250686363496229
   H              0.839912578613997       0.613374138302287       0.250376205508392
   H             -0.000000000000000       0.618300487146754       0.750000000000000
   H              0.000000000000000       0.903023838069545       0.750000000000000
   H              0.326294865825926       0.397459992370852       0.249313636503770
   H              0.160087421386004       0.613374138302287       0.249623794491608
   H              0.326294865825926       0.602540007629150       0.749313636503770
   H              0.160087421386004       0.386625861697714       0.749623794491608
   H              0.000000000000000       0.381699512853246       0.250000000000000
   H              0.000000000000000       0.096976161930456       0.250000000000000
   H              0.673705134174076       0.602540007629150       0.750686363496230
   H              0.839912578613997       0.386625861697714       0.750376205508392
   H              0.826294865825924       1.102540007629151       0.749313636503770
   H              0.660087421386003       0.886625861697713       0.749623794491608
   H              0.500000000000000       0.881699512853246       0.250000000000000
   H              0.500000000000000       0.596976161930455       0.250000000000000
   H              0.173705134174074       1.102540007629151       0.750686363496230
   H              0.339912578613996       0.886625861697713       0.750376205508392
%ENDBLOCK positions_frac

FIX_COM : true

%BLOCK species_gamma
   radsectesla
   H          267522128.0    
%ENDBLOCK species_gamma

%BLOCK species_pot
   H       0|0.7|2|6|8|10L(qc=10)
%ENDBLOCK species_pot

SYMMETRY_TOL :     0.001000

%BLOCK symmetry_ops
# Symm. op. 1       E
          1.000000000000000       0.000000000000000       0.000000000000000
          0.000000000000000       1.000000000000000       0.000000000000000
         -0.000000000000000       0.000000000000000       1.000000000000000
          0.000000000000000       0.000000000000000       0.000000000000000
# Symm. op. 2       I
         -1.000000000000000       0.000000000000000       0.000000000000000
          0.000000000000000      -1.000000000000000       0.000000000000000
          0.000000000000000       0.000000000000000      -1.000000000000000
         -0.000000000000000      -0.000000000000000      -0.000000000000000
# Symm. op. 3     2_1
         -1.000000000000000       0.000000000000000       0.000000000000000
          0.000000000000000       1.000000000000000       0.000000000000000
          0.000000000000000       0.000000000000000      -1.000000000000000
          0.500000000000000       0.500000000000000       0.500000000000000
# Symm. op. 4       n
          1.000000000000000       0.000000000000000       0.000000000000000
          0.000000000000000      -1.000000000000000       0.000000000000000
         -0.000000000000000       0.000000000000000       1.000000000000000
          0.500000000000000       0.500000000000000       0.500000000000000
# Symm. op. 5       E
          1.000000000000000       0.000000000000000       0.000000000000000
          0.000000000000000       1.000000000000000       0.000000000000000
         -0.000000000000000       0.000000000000000       1.000000000000000
          0.500000000000000       0.500000000000000       0.000000000000000
# Symm. op. 6       I
         -1.000000000000000       0.000000000000000       0.000000000000000
          0.000000000000000      -1.000000000000000       0.000000000000000
          0.000000000000000       0.000000000000000      -1.000000000000000
          0.500000000000000       0.500000000000000      -0.000000000000000
# Symm. op. 7       2
         -1.000000000000000       0.000000000000000       0.000000000000000
          0.000000000000000       1.000000000000000       0.000000000000000
          0.000000000000000       0.000000000000000      -1.000000000000000
         -0.000000000000000       0.000000000000000       0.500000000000000
# Symm. op. 8       c
          1.000000000000000       0.000000000000000       0.000000000000000
          0.000000000000000      -1.000000000000000       0.000000000000000
         -0.000000000000000       0.000000000000000       1.000000000000000
          0.000000000000000      -0.000000000000000       0.500000000000000
%ENDBLOCK symmetry_ops

kpoint_mp_grid :    2   2   2

phonon_kpoint_mp_grid :    1   1   1



%BLOCK EXTERNAL_PRESSURE
GPA
180  0   0
    180  0
        180
%ENDBLOCK EXTERNAL_PRESSURE
