# CELL file written 19:54:21 (GMT+1.0) 21st July 2020 from run C2c

%BLOCK lattice_cart
   ANG
       4.82929701251529        0.00000000000000      -0.217511037290438E-01
       0.00000000000000        2.65058686240228        0.00000000000000    
      -3.22043425719662        0.00000000000000        2.75286548075793    
%ENDBLOCK lattice_cart

%BLOCK cell_constraints
      1   2   3
      0   5   0
%ENDBLOCK cell_constraints

%BLOCK positions_frac
   H              0.188397039454427      -0.086603407497471       0.252375727383301
   H              0.352188513864184       0.122997460916213       0.250878655356295
   H              0.500000000000000       0.133839211567794       0.750000000000000
   H              0.500000000000000       0.428832706133150       0.750000000000000
   H              0.811602960545572      -0.086603407497471       0.247624272616698
   H              0.647811486135816       0.122997460916213       0.249121344643705
   H              0.688397039454428       0.413396592502530       0.252375727383301
   H              0.852188513864184       0.622997460916214       0.250878655356295
   H              0.000000000000000       0.633839211567794       0.750000000000000
   H              0.000000000000000       0.928832706133150       0.750000000000000
   H              0.311602960545573       0.413396592502530       0.247624272616698
   H              0.147811486135816       0.622997460916214       0.249121344643705
   H              0.311602960545573       0.586603407497471       0.747624272616698
   H              0.147811486135816       0.377002539083787       0.749121344643705
   H             -0.000000000000000       0.366160788432206       0.250000000000000
   H              0.000000000000000       0.071167293866850       0.250000000000000
   H              0.688397039454428       0.586603407497471       0.752375727383302
   H              0.852188513864184       0.377002539083787       0.750878655356295
   H              0.811602960545572       1.086603407497471       0.747624272616698
   H              0.647811486135816       0.877002539083786       0.749121344643705
   H              0.500000000000000       0.866160788432206       0.250000000000000
   H              0.500000000000000       0.571167293866850       0.250000000000000
   H              0.188397039454427       1.086603407497471       0.752375727383302
   H              0.352188513864184       0.877002539083786       0.750878655356295
%ENDBLOCK positions_frac

FIX_COM : true

%BLOCK species_gamma
   radsectesla
   H          267522128.0    
%ENDBLOCK species_gamma

%BLOCK species_pot
   H       0|0.7|2|6|8|10L(qc=10)
%ENDBLOCK species_pot

SYMMETRY_TOL :     0.001000

%BLOCK symmetry_ops
# Symm. op. 1       E
          1.000000000000000       0.000000000000000       0.000000000000000
          0.000000000000000       1.000000000000000       0.000000000000000
         -0.000000000000000       0.000000000000000       1.000000000000000
          0.000000000000000       0.000000000000000       0.000000000000000
# Symm. op. 2       I
         -1.000000000000000       0.000000000000000       0.000000000000000
          0.000000000000000      -1.000000000000000       0.000000000000000
          0.000000000000000       0.000000000000000      -1.000000000000000
         -0.000000000000000      -0.000000000000000      -0.000000000000000
# Symm. op. 3     2_1
         -1.000000000000000       0.000000000000000       0.000000000000000
          0.000000000000000       1.000000000000000       0.000000000000000
          0.000000000000000       0.000000000000000      -1.000000000000000
          0.500000000000000       0.500000000000000       0.500000000000000
# Symm. op. 4       n
          1.000000000000000       0.000000000000000       0.000000000000000
          0.000000000000000      -1.000000000000000       0.000000000000000
         -0.000000000000000       0.000000000000000       1.000000000000000
          0.500000000000000       0.500000000000000       0.500000000000000
# Symm. op. 5       E
          1.000000000000000       0.000000000000000       0.000000000000000
          0.000000000000000       1.000000000000000       0.000000000000000
         -0.000000000000000       0.000000000000000       1.000000000000000
          0.500000000000000       0.500000000000000       0.000000000000000
# Symm. op. 6       I
         -1.000000000000000       0.000000000000000       0.000000000000000
          0.000000000000000      -1.000000000000000       0.000000000000000
          0.000000000000000       0.000000000000000      -1.000000000000000
          0.500000000000000       0.500000000000000      -0.000000000000000
# Symm. op. 7       2
         -1.000000000000000       0.000000000000000       0.000000000000000
          0.000000000000000       1.000000000000000       0.000000000000000
          0.000000000000000       0.000000000000000      -1.000000000000000
         -0.000000000000000       0.000000000000000       0.500000000000000
# Symm. op. 8       c
          1.000000000000000       0.000000000000000       0.000000000000000
          0.000000000000000      -1.000000000000000       0.000000000000000
         -0.000000000000000       0.000000000000000       1.000000000000000
          0.000000000000000      -0.000000000000000       0.500000000000000
%ENDBLOCK symmetry_ops

kpoint_mp_grid :    2   2   2

phonon_kpoint_mp_grid :    1   1   1



%BLOCK EXTERNAL_PRESSURE
GPA
270  0   0
    270  0
        270
%ENDBLOCK EXTERNAL_PRESSURE
