# CELL file written 16:53:41 (GMT+1.0) 27th August 2020 from run Pbcn

%BLOCK lattice_cart
   ANG
       2.82398116081553       0.109051340817127E-34    0.00000000000000    
      0.189508221345344E-34    4.91643549543121        0.00000000000000    
       0.00000000000000        0.00000000000000        5.05434042964175    
%ENDBLOCK lattice_cart

%BLOCK cell_constraints
      1   2   3
      0   0   0
%ENDBLOCK cell_constraints

%BLOCK positions_frac
   H              0.404528473082142       0.113433008120428       0.010885763873146
   H              0.585630993087124       0.216258337284950       0.015713451555972
   H              0.583798425356183       0.554766850233872       0.003144067839933
   H              0.147001279181708       0.171524955028883       0.249474206134807
   H              0.316536012793960       0.341674382563125       0.246629846497557
   H              0.170104407862885       0.487746682581758       0.250828595011872
   H              0.170104407862885       0.512253317418242       0.750828595011872
   H              0.316536012793960       0.658325617436875       0.746629846497557
   H              0.147001279181708       0.828475044971116       0.749474206134807
   H              0.583798425356183       0.445233149766127       0.503144067839933
   H              0.585630993087124       0.783741662715050       0.515713451555972
   H              0.404528473082142       0.886566991879571       0.510885763873146
   H              0.329895592137115       0.987746682581758       0.250828595011872
   H              0.183463987206040       0.841674382563124       0.246629846497557
   H              0.352998720818292       0.671524955028884       0.249474206134807
   H             -0.083798425356183       0.054766850233873       0.003144067839933
   H             -0.085630993087124       0.716258337284950       0.015713451555972
   H              0.095471526917858       0.613433008120429       0.010885763873146
   H              0.670104407862884       0.987746682581758       0.249171404988128
   H              0.816536012793960       0.841674382563124       0.253370153502443
   H              0.647001279181708       0.671524955028884       0.250525793865193
   H              1.083798425356183       0.054766850233873       0.496855932160067
   H              1.085630993087124       0.716258337284950       0.484286548444028
   H              0.904528473082143       0.613433008120429       0.489114236126854
   H              0.829895592137117       0.512253317418242       0.749171404988128
   H              0.683463987206040       0.658325617436875       0.753370153502443
   H              0.852998720818292       0.828475044971116       0.750525793865193
   H              0.416201574643817       0.445233149766127      -0.003144067839933
   H              0.414369006912876       0.783741662715050       0.984286548444028
   H              0.595471526917857       0.886566991879571       0.989114236126854
   H              0.829895592137117       0.487746682581758       0.249171404988128
   H              0.683463987206040       0.341674382563125       0.253370153502443
   H              0.852998720818292       0.171524955028883       0.250525793865193
   H              0.416201574643817       0.554766850233872       0.496855932160067
   H              0.414369006912876       0.216258337284950       0.484286548444028
   H              0.595471526917857       0.113433008120428       0.489114236126854
   H              0.670104407862884       0.012253317418242       0.749171404988128
   H              0.816536012793960       0.158325617436875       0.753370153502443
   H              0.647001279181708       0.328475044971117       0.750525793865193
   H              0.083798425356183      -0.054766850233873      -0.003144067839933
   H              1.085630993087124       0.283741662715050       0.984286548444028
   H              0.904528473082143       0.386566991879573       0.989114236126854
   H              0.329895592137115       0.012253317418242       0.750828595011872
   H              0.183463987206040       0.158325617436875       0.746629846497557
   H              0.352998720818292       0.328475044971117       0.749474206134807
   H              0.916201574643817      -0.054766850233873       0.503144067839933
   H             -0.085630993087124       0.283741662715050       0.515713451555972
   H              0.095471526917858       0.386566991879573       0.510885763873146
%ENDBLOCK positions_frac

FIX_COM : true

%BLOCK species_mass
   AMU
   H          1.007825032    
%ENDBLOCK species_mass

%BLOCK species_gamma
   radsectesla
   H          267522128.0    
%ENDBLOCK species_gamma

%BLOCK species_pot
   H       0|0.7|2|6|8|10L(qc=10)
%ENDBLOCK species_pot

SYMMETRY_TOL :     0.001000

%BLOCK symmetry_ops
# Symm. op. 1       E
          1.000000000000000       0.000000000000000       0.000000000000000
          0.000000000000000       1.000000000000000       0.000000000000000
          0.000000000000000       0.000000000000000       1.000000000000000
          0.000000000000000       0.000000000000000       0.000000000000000
# Symm. op. 2       I
         -1.000000000000000       0.000000000000000       0.000000000000000
          0.000000000000000      -1.000000000000000       0.000000000000000
          0.000000000000000       0.000000000000000      -1.000000000000000
         -0.000000000000000      -0.000000000000000       0.000000000000000
# Symm. op. 3     2_1
         -1.000000000000000       0.000000000000000       0.000000000000000
          0.000000000000000      -1.000000000000000       0.000000000000000
          0.000000000000000       0.000000000000000       1.000000000000000
          0.500000000000000       0.500000000000000       0.500000000000000
# Symm. op. 4       n
          1.000000000000000       0.000000000000000       0.000000000000000
          0.000000000000000       1.000000000000000       0.000000000000000
          0.000000000000000       0.000000000000000      -1.000000000000000
          0.500000000000000       0.500000000000000       0.500000000000000
# Symm. op. 5     2_1
          1.000000000000000       0.000000000000000       0.000000000000000
          0.000000000000000      -1.000000000000000       0.000000000000000
          0.000000000000000       0.000000000000000      -1.000000000000000
          0.500000000000000       0.500000000000000       0.000000000000000
# Symm. op. 6       b
         -1.000000000000000       0.000000000000000       0.000000000000000
          0.000000000000000       1.000000000000000       0.000000000000000
          0.000000000000000       0.000000000000000       1.000000000000000
          0.500000000000000       0.500000000000000       0.000000000000000
# Symm. op. 7       2
         -1.000000000000000       0.000000000000000       0.000000000000000
          0.000000000000000       1.000000000000000       0.000000000000000
          0.000000000000000       0.000000000000000      -1.000000000000000
          0.000000000000000       0.000000000000000       0.500000000000000
# Symm. op. 8       c
          1.000000000000000       0.000000000000000       0.000000000000000
          0.000000000000000      -1.000000000000000       0.000000000000000
          0.000000000000000       0.000000000000000       1.000000000000000
          0.000000000000000      -0.000000000000000       0.500000000000000
%ENDBLOCK symmetry_ops

kpoint_mp_grid :   12  12  12

%BLOCK external_pressure
   GPA
       300.00000000      0.00000000      0.00000000
       300.00000000      0.00000000
       300.00000000
%ENDBLOCK external_pressure

