# CELL file written 10:13:26 (GMT+1.0) 28th August 2020 from run Pbcn

%BLOCK lattice_cart
   ANG
       3.54512491899866      -0.227484534776466E-33    0.00000000000000    
     -0.395747225581868E-33    6.15925688649974        0.00000000000000    
       0.00000000000000        0.00000000000000        6.10742245108833    
%ENDBLOCK lattice_cart

%BLOCK cell_constraints
      1   2   3
      0   0   0
%ENDBLOCK cell_constraints

%BLOCK positions_frac
   H              0.413402595927282       0.125343276646663       0.024640935483896
   H              0.566752838540702       0.203035688629596       0.049548167341789
   H              0.563193184646540       0.546736548944175       0.003506416808824
   H              0.105614544653159       0.169061547633955       0.245554213461087
   H              0.297713210729802       0.363777958330834       0.237943766586186
   H              0.192891356853842       0.467930366626715       0.256775928235341
   H              0.192891356853842       0.532069633373284       0.756775928235339
   H              0.297713210729802       0.636222041669167       0.737943766586188
   H              0.105614544653159       0.830938452366044       0.745554213461087
   H              0.563193184646540       0.453263451055827       0.503506416808825
   H              0.566752838540702       0.796964311370403       0.549548167341789
   H              0.413402595927282       0.874656723353336       0.524640935483896
   H              0.307108643146158       0.967930366626716       0.256775928235341
   H              0.202286789270198       0.863777958330832       0.237943766586186
   H              0.394385455346839       0.669061547633956       0.245554213461087
   H             -0.063193184646543       0.046736548944174       0.003506416808824
   H             -0.066752838540703       0.703035688629597       0.049548167341789
   H              0.086597404072717       0.625343276646664       0.024640935483896
   H              0.692891356853841       0.967930366626716       0.243224071764662
   H              0.797713210729801       0.863777958330832       0.262056233413814
   H              0.605614544653160       0.669061547633956       0.254445786538913
   H              1.063193184646541       0.046736548944174       0.496493583191176
   H              1.066752838540703       0.703035688629597       0.450451832658210
   H              0.913402595927285       0.625343276646664       0.475359064516104
   H              0.807108643146160       0.532069633373284       0.743224071764661
   H              0.702286789270199       0.636222041669167       0.762056233413812
   H              0.894385455346840       0.830938452366044       0.754445786538913
   H              0.436806815353457       0.453263451055827      -0.003506416808824
   H              0.433247161459298       0.796964311370403       0.950451832658211
   H              0.586597404072715       0.874656723353336       0.975359064516104
   H              0.807108643146160       0.467930366626715       0.243224071764662
   H              0.702286789270199       0.363777958330834       0.262056233413814
   H              0.894385455346840       0.169061547633955       0.254445786538913
   H              0.436806815353457       0.546736548944175       0.496493583191176
   H              0.433247161459298       0.203035688629596       0.450451832658210
   H              0.586597404072715       0.125343276646663       0.475359064516104
   H              0.692891356853841       0.032069633373284       0.743224071764661
   H              0.797713210729801       0.136222041669166       0.762056233413812
   H              0.605614544653160       0.330938452366046       0.754445786538913
   H              0.063193184646543      -0.046736548944174      -0.003506416808824
   H              1.066752838540703       0.296964311370404       0.950451832658211
   H              0.913402595927285       0.374656723353338       0.975359064516104
   H              0.307108643146158       0.032069633373284       0.756775928235339
   H              0.202286789270198       0.136222041669166       0.737943766586188
   H              0.394385455346839       0.330938452366046       0.745554213461087
   H              0.936806815353460      -0.046736548944174       0.503506416808825
   H             -0.066752838540703       0.296964311370404       0.549548167341789
   H              0.086597404072717       0.374656723353338       0.524640935483896
%ENDBLOCK positions_frac

FIX_COM : true

%BLOCK species_mass
   AMU
   H          1.007825032    
%ENDBLOCK species_mass

%BLOCK species_gamma
   radsectesla
   H          267522128.0    
%ENDBLOCK species_gamma

%BLOCK species_pot
   H       0|0.7|2|6|8|10L(qc=10)
%ENDBLOCK species_pot

SYMMETRY_TOL :     0.001000

%BLOCK symmetry_ops
# Symm. op. 1       E
          1.000000000000000       0.000000000000000       0.000000000000000
          0.000000000000000       1.000000000000000       0.000000000000000
          0.000000000000000       0.000000000000000       1.000000000000000
          0.000000000000000       0.000000000000000       0.000000000000000
# Symm. op. 2       I
         -1.000000000000000       0.000000000000000       0.000000000000000
          0.000000000000000      -1.000000000000000       0.000000000000000
          0.000000000000000       0.000000000000000      -1.000000000000000
         -0.000000000000000      -0.000000000000000       0.000000000000000
# Symm. op. 3     2_1
         -1.000000000000000       0.000000000000000       0.000000000000000
          0.000000000000000      -1.000000000000000       0.000000000000000
          0.000000000000000       0.000000000000000       1.000000000000000
          0.500000000000000       0.500000000000000       0.500000000000000
# Symm. op. 4       n
          1.000000000000000       0.000000000000000       0.000000000000000
          0.000000000000000       1.000000000000000       0.000000000000000
          0.000000000000000       0.000000000000000      -1.000000000000000
          0.500000000000000       0.500000000000000       0.500000000000000
# Symm. op. 5     2_1
          1.000000000000000       0.000000000000000       0.000000000000000
          0.000000000000000      -1.000000000000000       0.000000000000000
          0.000000000000000       0.000000000000000      -1.000000000000000
          0.500000000000000       0.500000000000000       0.000000000000000
# Symm. op. 6       b
         -1.000000000000000       0.000000000000000       0.000000000000000
          0.000000000000000       1.000000000000000       0.000000000000000
          0.000000000000000       0.000000000000000       1.000000000000000
          0.500000000000000       0.500000000000000       0.000000000000000
# Symm. op. 7       2
         -1.000000000000000       0.000000000000000       0.000000000000000
          0.000000000000000       1.000000000000000       0.000000000000000
          0.000000000000000       0.000000000000000      -1.000000000000000
          0.000000000000000       0.000000000000000       0.500000000000000
# Symm. op. 8       c
          1.000000000000000       0.000000000000000       0.000000000000000
          0.000000000000000      -1.000000000000000       0.000000000000000
          0.000000000000000       0.000000000000000       1.000000000000000
          0.000000000000000      -0.000000000000000       0.500000000000000
%ENDBLOCK symmetry_ops

kpoint_mp_grid :   12  12  12

%BLOCK external_pressure
   GPA
        60.00000000      0.00000000      0.00000000
        60.00000000      0.00000000
        60.00000000
%ENDBLOCK external_pressure

