# CELL file written 06:22:45 (GMT+1.0) 28th August 2020 from run Pbcn

%BLOCK lattice_cart
   ANG
       3.35073414421341      -0.216154759846608E-33    0.00000000000000    
     -0.376038953367939E-33    5.82145670505578        0.00000000000000    
       0.00000000000000        0.00000000000000        5.84420874276885    
%ENDBLOCK lattice_cart

%BLOCK cell_constraints
      1   2   3
      0   0   0
%ENDBLOCK cell_constraints

%BLOCK positions_frac
   H              0.407574583211419       0.122875991574606       0.018183450594723
   H              0.569834269032695       0.203856862758452       0.044885199713398
   H              0.565748978088198       0.549685307953424       0.003044047953884
   H              0.113276481103019       0.169559514546712       0.246983730944742
   H              0.300927636212405       0.359733645796892       0.240187008081462
   H              0.188355897147024       0.472155182444194       0.253327622771808
   H              0.188355897147024       0.527844817555805       0.753327622771805
   H              0.300927636212405       0.640266354203109       0.740187008081464
   H              0.113276481103019       0.830440485453287       0.746983730944742
   H              0.565748978088198       0.450314692046577       0.503044047953885
   H              0.569834269032695       0.796143137241547       0.544885199713398
   H              0.407574583211419       0.877124008425393       0.518183450594723
   H              0.311644102852976       0.972155182444195       0.253327622771808
   H              0.199072363787595       0.859733645796890       0.240187008081462
   H              0.386723518896979       0.669559514546713       0.246983730944742
   H             -0.065748978088201       0.049685307953424       0.003044047953884
   H             -0.069834269032695       0.703856862758453       0.044885199713398
   H              0.092425416788580       0.622875991574607       0.018183450594723
   H              0.688355897147023       0.972155182444195       0.246672377228195
   H              0.800927636212404       0.859733645796890       0.259812991918538
   H              0.613276481103020       0.669559514546713       0.253016269055258
   H              1.065748978088199       0.049685307953424       0.496955952046116
   H              1.069834269032696       0.703856862758453       0.455114800286601
   H              0.907574583211422       0.622875991574607       0.481816549405277
   H              0.811644102852978       0.527844817555805       0.746672377228195
   H              0.699072363787596       0.640266354203109       0.759812991918536
   H              0.886723518896980       0.830440485453287       0.753016269055258
   H              0.434251021911799       0.450314692046577      -0.003044047953884
   H              0.430165730967305       0.796143137241547       0.955114800286602
   H              0.592425416788578       0.877124008425393       0.981816549405277
   H              0.811644102852978       0.472155182444194       0.246672377228195
   H              0.699072363787596       0.359733645796892       0.259812991918538
   H              0.886723518896980       0.169559514546712       0.253016269055258
   H              0.434251021911799       0.549685307953424       0.496955952046116
   H              0.430165730967305       0.203856862758452       0.455114800286601
   H              0.592425416788578       0.122875991574606       0.481816549405277
   H              0.688355897147023       0.027844817555805       0.746672377228195
   H              0.800927636212404       0.140266354203108       0.759812991918536
   H              0.613276481103020       0.330440485453289       0.753016269055258
   H              0.065748978088201      -0.049685307953424      -0.003044047953884
   H              1.069834269032696       0.296143137241548       0.955114800286602
   H              0.907574583211422       0.377124008425395       0.981816549405277
   H              0.311644102852976       0.027844817555805       0.753327622771805
   H              0.199072363787595       0.140266354203108       0.740187008081464
   H              0.386723518896979       0.330440485453289       0.746983730944742
   H              0.934251021911802      -0.049685307953424       0.503044047953885
   H             -0.069834269032695       0.296143137241548       0.544885199713398
   H              0.092425416788580       0.377124008425395       0.518183450594723
%ENDBLOCK positions_frac

FIX_COM : true

%BLOCK species_mass
   AMU
   H          1.007825032    
%ENDBLOCK species_mass

%BLOCK species_gamma
   radsectesla
   H          267522128.0    
%ENDBLOCK species_gamma

%BLOCK species_pot
   H       0|0.7|2|6|8|10L(qc=10)
%ENDBLOCK species_pot

SYMMETRY_TOL :     0.001000

%BLOCK symmetry_ops
# Symm. op. 1       E
          1.000000000000000       0.000000000000000       0.000000000000000
          0.000000000000000       1.000000000000000       0.000000000000000
          0.000000000000000       0.000000000000000       1.000000000000000
          0.000000000000000       0.000000000000000       0.000000000000000
# Symm. op. 2       I
         -1.000000000000000       0.000000000000000       0.000000000000000
          0.000000000000000      -1.000000000000000       0.000000000000000
          0.000000000000000       0.000000000000000      -1.000000000000000
         -0.000000000000000      -0.000000000000000       0.000000000000000
# Symm. op. 3     2_1
         -1.000000000000000       0.000000000000000       0.000000000000000
          0.000000000000000      -1.000000000000000       0.000000000000000
          0.000000000000000       0.000000000000000       1.000000000000000
          0.500000000000000       0.500000000000000       0.500000000000000
# Symm. op. 4       n
          1.000000000000000       0.000000000000000       0.000000000000000
          0.000000000000000       1.000000000000000       0.000000000000000
          0.000000000000000       0.000000000000000      -1.000000000000000
          0.500000000000000       0.500000000000000       0.500000000000000
# Symm. op. 5     2_1
          1.000000000000000       0.000000000000000       0.000000000000000
          0.000000000000000      -1.000000000000000       0.000000000000000
          0.000000000000000       0.000000000000000      -1.000000000000000
          0.500000000000000       0.500000000000000       0.000000000000000
# Symm. op. 6       b
         -1.000000000000000       0.000000000000000       0.000000000000000
          0.000000000000000       1.000000000000000       0.000000000000000
          0.000000000000000       0.000000000000000       1.000000000000000
          0.500000000000000       0.500000000000000       0.000000000000000
# Symm. op. 7       2
         -1.000000000000000       0.000000000000000       0.000000000000000
          0.000000000000000       1.000000000000000       0.000000000000000
          0.000000000000000       0.000000000000000      -1.000000000000000
          0.000000000000000       0.000000000000000       0.500000000000000
# Symm. op. 8       c
          1.000000000000000       0.000000000000000       0.000000000000000
          0.000000000000000      -1.000000000000000       0.000000000000000
          0.000000000000000       0.000000000000000       1.000000000000000
          0.000000000000000      -0.000000000000000       0.500000000000000
%ENDBLOCK symmetry_ops

kpoint_mp_grid :   12  12  12

%BLOCK external_pressure
   GPA
        90.00000000      0.00000000      0.00000000
        90.00000000      0.00000000
        90.00000000
%ENDBLOCK external_pressure

