# CELL file written 21:38:24 (GMT+1.0) 27th August 2020 from run Pbcn

%BLOCK lattice_cart
   ANG
       2.96955514251871      -0.708879499043963E-34    0.00000000000000    
     -0.123401253996350E-33    5.16382984109335        0.00000000000000    
       0.00000000000000        0.00000000000000        5.29453302295473    
%ENDBLOCK lattice_cart

%BLOCK cell_constraints
      1   2   3
      0   0   0
%ENDBLOCK cell_constraints

%BLOCK positions_frac
   H              0.401208488539356       0.115891495259844       0.010620444456905
   H              0.579540704382314       0.210289112448330       0.027733766429304
   H              0.574968904987188       0.554824154558574       0.003923085868766
   H              0.134944536219775       0.171617187664404       0.248547737402828
   H              0.310041993513220       0.348196585595558       0.243569020927603
   H              0.175555295445360       0.482370402486660       0.250364934737347
   H              0.175555295445360       0.517629597513340       0.750364934737346
   H              0.310041993513220       0.651803414404442       0.743569020927604
   H              0.134944536219775       0.828382812335595       0.748547737402828
   H              0.574968904987188       0.445175845441426       0.503923085868766
   H              0.579540704382314       0.789710887551670       0.527733766429304
   H              0.401208488539356       0.884108504740155       0.510620444456905
   H              0.324444704554640       0.982370402486660       0.250364934737347
   H              0.189958006486780       0.848196585595557       0.243569020927603
   H              0.365055463780225       0.671617187664405       0.248547737402828
   H             -0.074968904987190       0.054824154558574       0.003923085868766
   H             -0.079540704382314       0.710289112448330       0.027733766429304
   H              0.098791511460644       0.615891495259845       0.010620444456905
   H              0.675555295445359       0.982370402486660       0.249635065262654
   H              0.810041993513220       0.848196585595557       0.256430979072397
   H              0.634944536219775       0.671617187664405       0.251452262597172
   H              1.074968904987188       0.054824154558574       0.496076914131234
   H              1.079540704382315       0.710289112448330       0.472266233570696
   H              0.901208488539357       0.615891495259845       0.489379555543095
   H              0.824444704554642       0.517629597513340       0.749635065262654
   H              0.689958006486780       0.651803414404442       0.756430979072396
   H              0.865055463780225       0.828382812335595       0.751452262597172
   H              0.425031095012810       0.445175845441426      -0.003923085868766
   H              0.420459295617685       0.789710887551670       0.972266233570696
   H              0.598791511460643       0.884108504740155       0.989379555543095
   H              0.824444704554642       0.482370402486660       0.249635065262654
   H              0.689958006486780       0.348196585595558       0.256430979072397
   H              0.865055463780225       0.171617187664404       0.251452262597172
   H              0.425031095012810       0.554824154558574       0.496076914131234
   H              0.420459295617685       0.210289112448330       0.472266233570696
   H              0.598791511460643       0.115891495259844       0.489379555543095
   H              0.675555295445359       0.017629597513340       0.749635065262654
   H              0.810041993513220       0.151803414404442       0.756430979072396
   H              0.634944536219775       0.328382812335597       0.751452262597172
   H              0.074968904987190      -0.054824154558574      -0.003923085868766
   H              1.079540704382315       0.289710887551670       0.972266233570696
   H              0.901208488539357       0.384108504740157       0.989379555543095
   H              0.324444704554640       0.017629597513340       0.750364934737346
   H              0.189958006486780       0.151803414404442       0.743569020927604
   H              0.365055463780225       0.328382812335597       0.748547737402828
   H              0.925031095012812      -0.054824154558574       0.503923085868766
   H             -0.079540704382314       0.289710887551670       0.527733766429304
   H              0.098791511460644       0.384108504740157       0.510620444456905
%ENDBLOCK positions_frac

FIX_COM : true

%BLOCK species_mass
   AMU
   H          1.007825032    
%ENDBLOCK species_mass

%BLOCK species_gamma
   radsectesla
   H          267522128.0    
%ENDBLOCK species_gamma

%BLOCK species_pot
   H       0|0.7|2|6|8|10L(qc=10)
%ENDBLOCK species_pot

SYMMETRY_TOL :     0.001000

%BLOCK symmetry_ops
# Symm. op. 1       E
          1.000000000000000       0.000000000000000       0.000000000000000
          0.000000000000000       1.000000000000000       0.000000000000000
          0.000000000000000       0.000000000000000       1.000000000000000
          0.000000000000000       0.000000000000000       0.000000000000000
# Symm. op. 2       I
         -1.000000000000000       0.000000000000000       0.000000000000000
          0.000000000000000      -1.000000000000000       0.000000000000000
          0.000000000000000       0.000000000000000      -1.000000000000000
         -0.000000000000000      -0.000000000000000       0.000000000000000
# Symm. op. 3     2_1
         -1.000000000000000       0.000000000000000       0.000000000000000
          0.000000000000000      -1.000000000000000       0.000000000000000
          0.000000000000000       0.000000000000000       1.000000000000000
          0.500000000000000       0.500000000000000       0.500000000000000
# Symm. op. 4       n
          1.000000000000000       0.000000000000000       0.000000000000000
          0.000000000000000       1.000000000000000       0.000000000000000
          0.000000000000000       0.000000000000000      -1.000000000000000
          0.500000000000000       0.500000000000000       0.500000000000000
# Symm. op. 5     2_1
          1.000000000000000       0.000000000000000       0.000000000000000
          0.000000000000000      -1.000000000000000       0.000000000000000
          0.000000000000000       0.000000000000000      -1.000000000000000
          0.500000000000000       0.500000000000000       0.000000000000000
# Symm. op. 6       b
         -1.000000000000000       0.000000000000000       0.000000000000000
          0.000000000000000       1.000000000000000       0.000000000000000
          0.000000000000000       0.000000000000000       1.000000000000000
          0.500000000000000       0.500000000000000       0.000000000000000
# Symm. op. 7       2
         -1.000000000000000       0.000000000000000       0.000000000000000
          0.000000000000000       1.000000000000000       0.000000000000000
          0.000000000000000       0.000000000000000      -1.000000000000000
          0.000000000000000       0.000000000000000       0.500000000000000
# Symm. op. 8       c
          1.000000000000000       0.000000000000000       0.000000000000000
          0.000000000000000      -1.000000000000000       0.000000000000000
          0.000000000000000       0.000000000000000       1.000000000000000
          0.000000000000000      -0.000000000000000       0.500000000000000
%ENDBLOCK symmetry_ops

kpoint_mp_grid :   12  12  12

%BLOCK external_pressure
   GPA
       210.00000000      0.00000000      0.00000000
       210.00000000      0.00000000
       210.00000000
%ENDBLOCK external_pressure

