# CELL file written 23:20:44 (GMT+1.0) 27th August 2020 from run Pbcn

%BLOCK lattice_cart
   ANG
       3.03590553546427      -0.855960742409114E-34    0.00000000000000    
     -0.149034721673124E-33    5.27693760198505        0.00000000000000    
       0.00000000000000        0.00000000000000        5.39569601620101    
%ENDBLOCK lattice_cart

%BLOCK cell_constraints
      1   2   3
      0   0   0
%ENDBLOCK cell_constraints

%BLOCK positions_frac
   H              0.401088057646111       0.117271346638539       0.010786457204672
   H              0.577168501966599       0.208219158876161       0.032358906644553
   H              0.572171036683986       0.554336019509625       0.003786099850619
   H              0.130197667186901       0.171251831739454       0.248170296824979
   H              0.307880629248996       0.350819814574559       0.242586193332146
   H              0.178191102301814       0.480316472005968       0.250446831642612
   H              0.178191102301814       0.519683527994032       0.750446831642610
   H              0.307880629248996       0.649180185425441       0.742586193332147
   H              0.130197667186901       0.828748168260544       0.748170296824979
   H              0.572171036683986       0.445663980490375       0.503786099850619
   H              0.577168501966599       0.791780841123838       0.532358906644552
   H              0.401088057646111       0.882728653361460       0.510786457204672
   H              0.321808897698186       0.980316472005968       0.250446831642612
   H              0.192119370751004       0.850819814574558       0.242586193332146
   H              0.369802332813098       0.671251831739456       0.248170296824979
   H             -0.072171036683988       0.054336019509625       0.003786099850619
   H             -0.077168501966599       0.708219158876162       0.032358906644553
   H              0.098911942353889       0.617271346638540       0.010786457204672
   H              0.678191102301813       0.980316472005968       0.249553168357390
   H              0.807880629248996       0.850819814574558       0.257413806667854
   H              0.630197667186901       0.671251831739456       0.251829703175021
   H              1.072171036683987       0.054336019509625       0.496213900149381
   H              1.077168501966600       0.708219158876162       0.467641093355447
   H              0.901088057646113       0.617271346638540       0.489213542795328
   H              0.821808897698188       0.519683527994032       0.749553168357390
   H              0.692119370751004       0.649180185425441       0.757413806667853
   H              0.869802332813099       0.828748168260544       0.751829703175021
   H              0.427828963316012       0.445663980490375      -0.003786099850619
   H              0.422831498033401       0.791780841123838       0.967641093355448
   H              0.598911942353887       0.882728653361460       0.989213542795328
   H              0.821808897698188       0.480316472005968       0.249553168357390
   H              0.692119370751004       0.350819814574559       0.257413806667854
   H              0.869802332813099       0.171251831739454       0.251829703175021
   H              0.427828963316012       0.554336019509625       0.496213900149381
   H              0.422831498033401       0.208219158876161       0.467641093355447
   H              0.598911942353887       0.117271346638539       0.489213542795328
   H              0.678191102301813       0.019683527994032       0.749553168357390
   H              0.807880629248996       0.149180185425441       0.757413806667853
   H              0.630197667186901       0.328748168260547       0.751829703175021
   H              0.072171036683988      -0.054336019509625      -0.003786099850619
   H              1.077168501966600       0.291780841123839       0.967641093355448
   H              0.901088057646113       0.382728653361462       0.989213542795328
   H              0.321808897698186       0.019683527994032       0.750446831642610
   H              0.192119370751004       0.149180185425441       0.742586193332147
   H              0.369802332813098       0.328748168260547       0.748170296824979
   H              0.927828963316014      -0.054336019509625       0.503786099850619
   H             -0.077168501966599       0.291780841123839       0.532358906644552
   H              0.098911942353889       0.382728653361462       0.510786457204672
%ENDBLOCK positions_frac

FIX_COM : true

%BLOCK species_mass
   AMU
   H          1.007825032    
%ENDBLOCK species_mass

%BLOCK species_gamma
   radsectesla
   H          267522128.0    
%ENDBLOCK species_gamma

%BLOCK species_pot
   H       0|0.7|2|6|8|10L(qc=10)
%ENDBLOCK species_pot

SYMMETRY_TOL :     0.001000

%BLOCK symmetry_ops
# Symm. op. 1       E
          1.000000000000000       0.000000000000000       0.000000000000000
          0.000000000000000       1.000000000000000       0.000000000000000
          0.000000000000000       0.000000000000000       1.000000000000000
          0.000000000000000       0.000000000000000       0.000000000000000
# Symm. op. 2       I
         -1.000000000000000       0.000000000000000       0.000000000000000
          0.000000000000000      -1.000000000000000       0.000000000000000
          0.000000000000000       0.000000000000000      -1.000000000000000
         -0.000000000000000      -0.000000000000000       0.000000000000000
# Symm. op. 3     2_1
         -1.000000000000000       0.000000000000000       0.000000000000000
          0.000000000000000      -1.000000000000000       0.000000000000000
          0.000000000000000       0.000000000000000       1.000000000000000
          0.500000000000000       0.500000000000000       0.500000000000000
# Symm. op. 4       n
          1.000000000000000       0.000000000000000       0.000000000000000
          0.000000000000000       1.000000000000000       0.000000000000000
          0.000000000000000       0.000000000000000      -1.000000000000000
          0.500000000000000       0.500000000000000       0.500000000000000
# Symm. op. 5     2_1
          1.000000000000000       0.000000000000000       0.000000000000000
          0.000000000000000      -1.000000000000000       0.000000000000000
          0.000000000000000       0.000000000000000      -1.000000000000000
          0.500000000000000       0.500000000000000       0.000000000000000
# Symm. op. 6       b
         -1.000000000000000       0.000000000000000       0.000000000000000
          0.000000000000000       1.000000000000000       0.000000000000000
          0.000000000000000       0.000000000000000       1.000000000000000
          0.500000000000000       0.500000000000000       0.000000000000000
# Symm. op. 7       2
         -1.000000000000000       0.000000000000000       0.000000000000000
          0.000000000000000       1.000000000000000       0.000000000000000
          0.000000000000000       0.000000000000000      -1.000000000000000
          0.000000000000000       0.000000000000000       0.500000000000000
# Symm. op. 8       c
          1.000000000000000       0.000000000000000       0.000000000000000
          0.000000000000000      -1.000000000000000       0.000000000000000
          0.000000000000000       0.000000000000000       1.000000000000000
          0.000000000000000      -0.000000000000000       0.500000000000000
%ENDBLOCK symmetry_ops

kpoint_mp_grid :   12  12  12

%BLOCK external_pressure
   GPA
       180.00000000      0.00000000      0.00000000
       180.00000000      0.00000000
       180.00000000
%ENDBLOCK external_pressure

