# CELL file written 01:23:51 (GMT+1.0) 28th August 2020 from run Pbcn

%BLOCK lattice_cart
   ANG
       3.11629604999223      -0.120519545204464E-33    0.00000000000000    
     -0.209791997202668E-33    5.41498839557765        0.00000000000000    
       0.00000000000000        0.00000000000000        5.51428703302557    
%ENDBLOCK lattice_cart

%BLOCK cell_constraints
      1   2   3
      0   0   0
%ENDBLOCK cell_constraints

%BLOCK positions_frac
   H              0.401959922399066       0.118924188448837       0.011793276500254
   H              0.574766854903797       0.206393011557674       0.036799854480004
   H              0.569760027619376       0.553374301015209       0.003520281285572
   H              0.125107657987172       0.170742602844049       0.247822567087705
   H              0.305723646100342       0.353576613068644       0.241770359544133
   H              0.181180171720548       0.478019499070108       0.250834653138272
   H              0.181180171720548       0.521980500929892       0.750834653138270
   H              0.305723646100342       0.646423386931356       0.741770359544134
   H              0.125107657987172       0.829257397155949       0.747822567087705
   H              0.569760027619376       0.446625698984792       0.503520281285572
   H              0.574766854903797       0.793606988442325       0.536799854480004
   H              0.401959922399066       0.881075811551162       0.511793276500255
   H              0.318819828279452       0.978019499070108       0.250834653138272
   H              0.194276353899658       0.853576613068643       0.241770359544133
   H              0.374892342012827       0.670742602844051       0.247822567087705
   H             -0.069760027619379       0.053374301015209       0.003520281285572
   H             -0.074766854903797       0.706393011557675       0.036799854480004
   H              0.098040077600933       0.618924188448838       0.011793276500254
   H              0.681180171720547       0.978019499070108       0.249165346861730
   H              0.805723646100341       0.853576613068643       0.258229640455867
   H              0.625107657987172       0.670742602844051       0.252177432912295
   H              1.069760027619377       0.053374301015209       0.496479718714428
   H              1.074766854903798       0.706393011557675       0.463200145519996
   H              0.901959922399069       0.618924188448838       0.488206723499746
   H              0.818819828279454       0.521980500929892       0.749165346861730
   H              0.694276353899659       0.646423386931356       0.758229640455866
   H              0.874892342012828       0.829257397155949       0.752177432912295
   H              0.430239972380621       0.446625698984792      -0.003520281285572
   H              0.425233145096203       0.793606988442325       0.963200145519996
   H              0.598040077600931       0.881075811551162       0.988206723499745
   H              0.818819828279454       0.478019499070108       0.249165346861730
   H              0.694276353899659       0.353576613068644       0.258229640455867
   H              0.874892342012828       0.170742602844049       0.252177432912295
   H              0.430239972380621       0.553374301015209       0.496479718714428
   H              0.425233145096203       0.206393011557674       0.463200145519996
   H              0.598040077600931       0.118924188448837       0.488206723499746
   H              0.681180171720547       0.021980500929892       0.749165346861730
   H              0.805723646100341       0.146423386931356       0.758229640455866
   H              0.625107657987172       0.329257397155952       0.752177432912295
   H              0.069760027619379      -0.053374301015209      -0.003520281285572
   H              1.074766854903798       0.293606988442326       0.963200145519996
   H              0.901959922399069       0.381075811551164       0.988206723499745
   H              0.318819828279452       0.021980500929892       0.750834653138270
   H              0.194276353899658       0.146423386931356       0.741770359544134
   H              0.374892342012827       0.329257397155952       0.747822567087705
   H              0.930239972380624      -0.053374301015209       0.503520281285572
   H             -0.074766854903797       0.293606988442326       0.536799854480004
   H              0.098040077600933       0.381075811551164       0.511793276500255
%ENDBLOCK positions_frac

FIX_COM : true

%BLOCK species_mass
   AMU
   H          1.007825032    
%ENDBLOCK species_mass

%BLOCK species_gamma
   radsectesla
   H          267522128.0    
%ENDBLOCK species_gamma

%BLOCK species_pot
   H       0|0.7|2|6|8|10L(qc=10)
%ENDBLOCK species_pot

SYMMETRY_TOL :     0.001000

%BLOCK symmetry_ops
# Symm. op. 1       E
          1.000000000000000       0.000000000000000       0.000000000000000
          0.000000000000000       1.000000000000000       0.000000000000000
          0.000000000000000       0.000000000000000       1.000000000000000
          0.000000000000000       0.000000000000000       0.000000000000000
# Symm. op. 2       I
         -1.000000000000000       0.000000000000000       0.000000000000000
          0.000000000000000      -1.000000000000000       0.000000000000000
          0.000000000000000       0.000000000000000      -1.000000000000000
         -0.000000000000000      -0.000000000000000       0.000000000000000
# Symm. op. 3     2_1
         -1.000000000000000       0.000000000000000       0.000000000000000
          0.000000000000000      -1.000000000000000       0.000000000000000
          0.000000000000000       0.000000000000000       1.000000000000000
          0.500000000000000       0.500000000000000       0.500000000000000
# Symm. op. 4       n
          1.000000000000000       0.000000000000000       0.000000000000000
          0.000000000000000       1.000000000000000       0.000000000000000
          0.000000000000000       0.000000000000000      -1.000000000000000
          0.500000000000000       0.500000000000000       0.500000000000000
# Symm. op. 5     2_1
          1.000000000000000       0.000000000000000       0.000000000000000
          0.000000000000000      -1.000000000000000       0.000000000000000
          0.000000000000000       0.000000000000000      -1.000000000000000
          0.500000000000000       0.500000000000000       0.000000000000000
# Symm. op. 6       b
         -1.000000000000000       0.000000000000000       0.000000000000000
          0.000000000000000       1.000000000000000       0.000000000000000
          0.000000000000000       0.000000000000000       1.000000000000000
          0.500000000000000       0.500000000000000       0.000000000000000
# Symm. op. 7       2
         -1.000000000000000       0.000000000000000       0.000000000000000
          0.000000000000000       1.000000000000000       0.000000000000000
          0.000000000000000       0.000000000000000      -1.000000000000000
          0.000000000000000       0.000000000000000       0.500000000000000
# Symm. op. 8       c
          1.000000000000000       0.000000000000000       0.000000000000000
          0.000000000000000      -1.000000000000000       0.000000000000000
          0.000000000000000       0.000000000000000       1.000000000000000
          0.000000000000000      -0.000000000000000       0.500000000000000
%ENDBLOCK symmetry_ops

kpoint_mp_grid :   12  12  12

%BLOCK external_pressure
   GPA
       150.00000000      0.00000000      0.00000000
       150.00000000      0.00000000
       150.00000000
%ENDBLOCK external_pressure

